Cs2 Cd1 Sn1 Cl6
1.0
  -6.6062460124146778    0.0000000000000000    3.8107285694937301
  -2.2011935001140381    6.2288461527289742    3.8143957501665993
  -2.2011935001140381    6.2288461527289742   -3.8152154948334012
Cd Cl Cs Sn
1 6 2 1
direct
   0.9998705000000000    0.0032740000000000    0.9983285000000001 Cd
   0.2419825000000001    0.0039570000000001    0.7559785000000001 Cl
   0.7546710000000000    0.0072790000000000    0.7547790000000002 Cl
   0.2447480000000001    0.9985719999999999    0.2447975000000000 Cl
   0.7559290000000001    0.0051570000000000    0.2410550000000000 Cl
   0.7595935000000000    0.4889849999999999    0.7594290000000000 Cl
   0.2397315000000000    0.5175689999999999    0.2421265000000002 Cl
   0.7496520000000000    0.5035980000000000    0.2498100000000001 Cs
   0.2497450000000000    0.5036049999999999    0.7497400000000001 Cs
   0.4998469999999999    0.0032750000000001    0.4988510000000000 Sn
