Cs2 In1 Hg1 Cl6
1.0
  -6.5657764190732824    0.0000000000000000   -3.7436526589397721
   2.1828625355279510   -6.1915439475391532   -3.7490313537791811
   0.0000000000000000    0.0000000000000000    7.5821649750000004
Cl Cs Hg In
6 2 1 1
direct
   0.2638565000000000    0.2636225000000001    0.5294600000000003 Cl
   0.7401515000000001    0.2623950000000000    0.0031315000000001 Cl
   0.2625180000000001    0.7390870000000000    0.0046640000000002 Cl
   0.7392825000000001    0.7386125000000000    0.4794990000000001 Cl
   0.7401645000000000    0.7404645000000000    0.0033210000000001 Cl
   0.2622780000000000    0.2606710000000000    0.0041240000000000 Cl
   0.7516040000000000    0.2509925000000000    0.5044625000000000 Cs
   0.2515535000000001    0.7510505000000001    0.5045250000000001 Cs
   0.0016620000000001    0.0011755000000001    0.0050735000000004 Hg
   0.5015965000000000    0.5010390000000000    0.0045875000000002 In
