Cs2 V1 Pb1 Cl6
1.0
  -4.3361627922756423   -6.1346300908523608   -0.0001115695863003
   2.1733305688785740   -6.1346300908523608   -3.7540995769585037
   2.1733305688785740   -6.1346300908523608    3.7649281380414963
Cl Cs Pb V
6 2 1 1
direct
   0.2729015000000000    0.7339455000000001    0.2548195000000000 Cl
   0.7378775000000000    0.2651855000000001    0.2661964999999999 Cl
   0.2612180000000000    0.7432010000000000    0.7240150000000001 Cl
   0.7283800000000000    0.2704050000000000    0.7352505000000000 Cl
   0.7368995000000000    0.7348754999999999    0.2649610000000001 Cl
   0.2624225000000000    0.2731005000000000    0.7269455000000000 Cl
   0.7502490000000001    0.7530669999999999    0.7456745000000000 Cs
   0.2504215000000002    0.2530645000000000    0.2456334999999999 Cs
   0.9998255000000000    0.0035965000000000    0.9960035000000000 Pb
   0.4993360000000000    0.5037030000000000    0.4957230000000000 V
