Cs2 Sr1 Hg1 Cl6
1.0
  -2.1331696194801033    6.2986471728379883   -3.7495020719780729
   6.6500135027658507    0.0000000000000000   -3.7635801787479446
  -4.5168438832857474   -6.2986471728379883   -0.2623508292739825
Cl Cs Hg Sr
6 2 1 1
direct
   0.7157980000000000    0.8065090000000001    0.0058589999999999 Cl
   0.8071810000000000    0.2875489999999999    0.0059270000000000 Cl
   0.1945360000000000    0.7118085000000000    0.9969979999999999 Cl
   0.2870900000000001    0.1952975000000001    0.0040320000000000 Cl
   0.7547029999999999    0.7559674999999999    0.5145519999999999 Cl
   0.2496425000000000    0.2434235000000000    0.4930150000000000 Cl
   0.2514974999999999    0.7505269999999999    0.5032289999999999 Cs
   0.7512130000000000    0.2494725000000000    0.5034550000000000 Cs
   0.0007394999999999    0.9998319999999999    0.0035020000000000 Hg
   0.5013190000000001    0.4999344999999999    0.0037680000000000 Sr
