Cs2 Li1 Sb1 Cl6
1.0
   0.0000000000000000    5.3322130000000003    5.3322130000000003
   5.3322130000000003    0.0000000000000000    5.3322130000000003
   5.3322130000000003    5.3322130000000003    0.0000000000000000
Cs Li Sb Cl
2 1 1 6
direct
   0.7500000000000000    0.7500000000000000    0.7500000000000000 Cs
   0.2500000000000000    0.2500000000000000    0.2500000000000000 Cs
   0.5000000000000000    0.5000000000000000    0.5000000000000000 Li
   0.0000000000000000    0.0000000000000000    0.0000000000000000 Sb
   0.7491910000000001    0.2508090000000000    0.2508090000000000 Cl
   0.2508090000000000    0.2508090000000000    0.7491910000000001 Cl
   0.2508090000000000    0.7491910000000001    0.7491910000000001 Cl
   0.2508090000000000    0.7491910000000001    0.2508090000000000 Cl
   0.7491910000000001    0.2508090000000000    0.7491910000000001 Cl
   0.7491910000000001    0.7491910000000001    0.2508090000000000 Cl
