Cs2 Co1 Au1 Cl6
1.0
  -0.0000000000000000   -0.0000000000000000    7.3578703950000000
   2.1631285050942255   -6.0200378406731199   -3.6504129824480711
   4.2459472363251614    6.0200378406731199   -0.0702013240300623
Au Cl Co Cs
1 6 1 2
direct
   0.9978865000000000    0.9973255000000000    0.0018720000000000 Au
   0.2878114999999999    0.9980979999999999    0.7155205000000000 Cl
   0.2874300000000000    0.5742234999999998    0.2906245000000000 Cl
   0.7112315000000000    0.4229420000000000    0.7134004999999999 Cl
   0.7108245000000000    0.9990590000000000    0.2886155000000000 Cl
   0.2172740000000000    0.9961040000000000    0.2226080000000000 Cl
   0.7783459999999999    0.9983929999999999    0.7810649999999999 Cl
   0.4995580000000001    0.9987900000000000    0.5020490000000000 Co
   0.7477195000000001    0.4975090000000000    0.2526275000000000 Cs
   0.2478319999999999    0.4968340000000001    0.7526060000000000 Cs
