Cs4 Cu2 Hg2 Cl12
1.0
   2.1404795382293433   -6.0503383606154086    3.7095875897290553
   6.4178897235580221   -0.0000000000000000   -3.7180860119310699
   4.2774101853286783    6.0503383606154086    7.3788481283398752
Cs Cu Hg Cl
4 2 2 12
direct
   0.4978800000000000    0.0011360000000000    0.2483100000000000 Cs
   0.9980159999999999    0.5012630000000000    0.7484190000000001 Cs
   0.9978780000000000    0.5012530000000001    0.2483700000000000 Cs
   0.4979740000000000    0.0011280000000001    0.7485560000000000 Cs
   0.9980130000000000    0.0010129999999999    0.9992390000000001 Cu
   0.4985809999999998    0.5013800000000002    0.4984359999999999 Cu
   0.4975069999999999    0.5014590000000001    0.9985160000000000 Hg
   0.9976940000000000    0.0019500000000000    0.4987800000000000 Hg
   0.2166090000000000    0.7828610000000000    0.9999520000000000 Cl
   0.7727989999999999    0.2251450000000001    0.4987360000000000 Cl
   0.2726830000000000    0.2774110000000000    0.9981080000000001 Cl
   0.7162530000000000    0.7196440000000000    0.4991050000000000 Cl
   0.7220870000000000    0.7261300000000002    0.9984400000000001 Cl
   0.2795490000000000    0.2834670000000000    0.4995350000000000 Cl
   0.7795830000000000    0.2190740000000000    0.9990690000000001 Cl
   0.2220410000000000    0.7777879999999999    0.4981030000000000 Cl
   0.9987610000000000    0.0005270000000000    0.2169290000000000 Cl
   0.4994300000000000    0.5005060000000001    0.7168270000000000 Cl
   0.4983310000000000    0.4998870000000001    0.2805810000000000 Cl
   0.9982780000000000    0.9999750000000001    0.7811150000000001 Cl
