Cs2 Na1 Tm1 Cl6
1.0
   0.0000000000000000    5.4248019999999997    5.4248019999999997
   5.4248019999999997    0.0000000000000000    5.4248019999999997
   5.4248019999999997    5.4248019999999997    0.0000000000000000
Cs Na Tm Cl
2 1 1 6
direct
   0.7500000000000000    0.7500000000000000    0.7500000000000000 Cs
   0.2500000000000000    0.2500000000000000    0.2500000000000000 Cs
   0.5000000000000000    0.5000000000000000    0.5000000000000000 Na
   0.0000000000000000    0.0000000000000000    0.0000000000000000 Tm
   0.7595550000000000    0.2404450000000000    0.2404450000000000 Cl
   0.2404450000000000    0.2404450000000000    0.7595550000000000 Cl
   0.2404450000000000    0.7595550000000000    0.7595550000000000 Cl
   0.2404450000000000    0.7595550000000000    0.2404450000000000 Cl
   0.7595550000000000    0.2404450000000000    0.7595550000000000 Cl
   0.7595550000000000    0.7595550000000000    0.2404450000000000 Cl
