Cs2 Na1 Sc1 Cl6
1.0
   0.0000000000000000    5.3324710000000000    5.3324710000000000
   5.3324710000000000    0.0000000000000000    5.3324710000000000
   5.3324710000000000    5.3324710000000000    0.0000000000000000
Cs Na Sc Cl
2 1 1 6
direct
   0.7500000000000000    0.7500000000000000    0.7500000000000000 Cs
   0.2500000000000000    0.2500000000000000    0.2500000000000000 Cs
   0.5000000000000000    0.5000000000000000    0.5000000000000000 Na
   0.0000000000000000    0.0000000000000000    0.0000000000000000 Sc
   0.7647320000000000    0.2352680000000000    0.2352680000000000 Cl
   0.2352680000000000    0.2352680000000000    0.7647320000000000 Cl
   0.2352680000000000    0.7647320000000000    0.7647320000000000 Cl
   0.2352680000000000    0.7647320000000000    0.2352680000000000 Cl
   0.7647320000000000    0.2352680000000000    0.7647320000000000 Cl
   0.7647320000000000    0.7647320000000000    0.2352680000000000 Cl
