Cs2 Ti1 Zn1 Cl6
1.0
  -2.0576688438215127    5.8355566293434853   -3.5685471084748461
   6.1956739173882402    0.0000000000000000    3.5675584190037974
   2.0576688438215127   -5.8355566293434853   -3.5861048015251540
Cl Cs Ti Zn
6 2 1 1
direct
   0.4914914999999999    0.7458004999999999    0.7417165000000000 Cl
   0.0001559999999998    0.2547605000000000    0.2511094999999999 Cl
   0.0000909999999999    0.7449520000000002    0.7415760000000001 Cl
   0.5078174999999998    0.2533054999999999    0.2506084999999998 Cl
   0.0002289999999999    0.2539405000000001    0.7422715000000002 Cl
   0.0002884999999998    0.7463649999999998    0.2503259999999999 Cl
   0.4997879999999997    0.2488870000000001    0.7467719999999999 Cs
   0.4997900000000000    0.7496110000000001    0.2455360000000000 Cs
   0.9986014999999998    0.9994769999999999    0.9949149999999998 Ti
   0.9976899999999999    0.4995750000000000    0.4939519999999999 Zn
