Cs2 Ag1 As1 Cl6
1.0
  -4.2385788709269487   -5.9980691639215769   -0.0005001515115870
  -2.1244648843210534    5.9980691639215769   -3.6744196455823213
   6.3630437552480021    0.0000000000000000   -3.6754679879060919
Ag As Cl Cs
1 1 6 2
direct
   0.0031400000000001    0.0027455000000001    0.0023985000000001 Ag
   0.0048490000000001    0.5047390000000000    0.5042020000000000 As
   0.0041930000000000    0.7458330000000000    0.7455449999999999 Cl
   0.0055760000000000    0.7471970000000001    0.2636580000000001 Cl
   0.0056419999999999    0.2641690000000000    0.7464109999999999 Cl
   0.0069120000000000    0.2647085000000000    0.2638609999999999 Cl
   0.4877910000000000    0.7460924999999999    0.7455870000000000 Cl
   0.5223870000000002    0.2646055000000000    0.2639395000000002 Cl
   0.5056280000000000    0.2551710000000001    0.7555194999999999 Cs
   0.5057390000000000    0.7560560000000001    0.2548050000000001 Cs
