Cs2 Ni1 Hg1 Cl6
1.0
  -0.0000000000000000   -0.0000000000000000    7.3707869549999998
   6.3926725452544613   -0.0000000000000000   -3.6691751430643982
  -2.1199660607232533    6.0296772024015954   -3.6776215778789205
Cl Cs Hg Ni
6 2 1 1
direct
   0.9996600000000001    0.7136484999999999    0.7119885000000000 Cl
   0.9994470000000001    0.2834189999999999    0.7115564999999999 Cl
   0.9990100000000001    0.7141060000000000    0.2821840000000000 Cl
   0.9989620000000002    0.2837590000000000    0.2803055000000000 Cl
   0.4479120000000000    0.2246000000000000    0.2224130000000000 Cl
   0.5476259999999998    0.7760119999999998    0.7727950000000000 Cl
   0.4980890000000001    0.2513185000000001    0.7472995000000001 Cs
   0.4981270000000000    0.7509594999999999    0.2474975000000000 Cs
   0.9978250000000001    0.9988554999999998    0.9964305000000000 Hg
   0.0009610000000001    0.4981985000000000    0.4970865000000000 Ni
