Cs2 Ti1 Cd1 Cl6
1.0
  -2.1107478566922113    5.9815982956846527   -3.6566214664945260
   0.0000000000000000    0.0000000000000000   -7.3218937300000002
  -6.3477117544957382    0.0000000000000000   -3.6594583988245257
Cd Cl Cs Ti
1 6 2 1
direct
   0.9989164999999999    0.9971125000000002    0.0055894999999999 Cd
   0.7430859999999999    0.7470145000000001    0.2576484999999999 Cl
   0.7494050000000001    0.2509295000000000    0.7460054999999999 Cl
   0.2530915000000001    0.7451460000000002    0.2569349999999998 Cl
   0.2563550000000000    0.2484659999999999    0.7469280000000000 Cl
   0.2530110000000000    0.7434410000000000    0.7499590000000000 Cl
   0.7456114999999999    0.2565325000000001    0.2521385000000000 Cl
   0.7510684999999998    0.7486385000000002    0.7506265000000001 Cs
   0.2492645000000001    0.2502690000000000    0.2500699999999999 Cs
   0.4995704999999999    0.4973400000000000    0.5038370000000000 Ti
