Cs2 Sm1 Ag1 Cl6
1.0
   0.0000000000000000    5.4840730000000004    5.4840730000000004
   5.4840730000000004    0.0000000000000000    5.4840730000000004
   5.4840730000000004    5.4840730000000004    0.0000000000000000
Cs Sm Ag Cl
2 1 1 6
direct
   0.7500000000000000    0.7500000000000000    0.7500000000000000 Cs
   0.2500000000000000    0.2500000000000000    0.2500000000000000 Cs
   0.0000000000000000    0.0000000000000000    0.0000000000000000 Sm
   0.5000000000000000    0.5000000000000000    0.5000000000000000 Ag
   0.7536580000000001    0.2463420000000000    0.2463420000000000 Cl
   0.2463420000000000    0.2463420000000000    0.7536580000000001 Cl
   0.2463420000000000    0.7536580000000001    0.7536580000000001 Cl
   0.2463420000000000    0.7536580000000001    0.2463420000000000 Cl
   0.7536580000000001    0.2463420000000000    0.7536580000000001 Cl
   0.7536580000000001    0.7536580000000001    0.2463420000000000 Cl
