Cs2 Rb1 Ir1 Cl6
1.0
   0.0000000000000000    0.0000000000000000   -7.6030506999999998
   6.6133119440915040    0.0000000000000000   -3.7532769055891211
   2.1799552394050781   -6.2553203418144721   -3.7480605771556967
Cl Cs Ir Rb
6 2 1 1
direct
   0.7663195000000000    0.7946630000000000    0.2148734999999999 Cl
   0.7738315000000000    0.2338445000000000    0.2008335000000000 Cl
   0.2210784999999998    0.7621985000000000    0.8048695000000000 Cl
   0.2284535000000000    0.2006155000000001    0.7911765000000001 Cl
   0.8016224999999999    0.2079690000000001    0.7648135000000000 Cl
   0.1926599999999999    0.7877045000000001    0.2415290000000000 Cl
   0.2464210000000000    0.2480230000000000    0.2523839999999999 Cs
   0.7472205000000001    0.7480570000000000    0.7541715000000000 Cs
   0.9972459999999999    0.9978240000000000    0.0030490000000000 Ir
   0.4972365000000000    0.4980650000000000    0.5030025000000000 Rb
