Cs4 K2 B2 Cl12
1.0
   7.3815891060842000   -0.0000000000000000   -4.0495519982782708
   3.1489665815661709    6.5581721128700483    5.7592848536511418
   4.2326225245180291   -6.5581721128700483    5.1303853080705881
Cs K B Cl
4 2 2 12
direct
   0.9790209999999999    0.2623690000000000    0.6169819999999999 Cs
   0.4294770000000001    0.7629839999999998    0.8617889999999999 Cs
   0.4277680000000001    0.2430920000000000    0.8608860000000000 Cs
   0.9769370000000001    0.7426009999999997    0.6183579999999999 Cs
   0.5282410000000001    0.0022850000000000    0.4187790000000000 K
   0.8895790000000001    0.4986139999999999    0.0581950000000000 K
   0.0493220000000000    0.0019850000000001    0.1397680000000000 B
   0.5353440000000000    0.5000079999999999    0.3763250000000000 B
   0.9240820000000001    0.0020410000000001    0.3189820000000001 Cl
   0.1646990000000000    0.5029939999999999    0.8189080000000001 Cl
   0.2662690000000000    0.0115560000000000    0.1670949999999999 Cl
   0.7095020000000001    0.5019350000000000    0.8025300000000000 Cl
   0.6997270000000001    0.0037690000000000    0.6854260000000000 Cl
   0.5107150000000000    0.4987059999999999    0.1816220000000000 Cl
   0.2469680000000000    0.0019760000000000    0.6519809999999999 Cl
   0.7558990000000001    0.4980559999999998    0.3909779999999999 Cl
   0.0010060000000000    0.1601460000000000    0.0333030000000000 Cl
   0.4436390000000000    0.6643629999999999    0.4635170000000000 Cl
   0.4390960000000000    0.3389090000000000    0.4662880000000000 Cl
   0.0156070000000001    0.8345409999999999    0.0402609999999999 Cl
