Cs2 Cr1 Hg1 Cl6
1.0
   0.0000000000000000    0.0000000000000000   -7.3658306299999996
  -2.1313036477965732    6.0212551101635476    3.6817157661936140
   6.3903753949631277    0.0000000000000000    3.6795167558022981
Cl Cr Cs Hg
6 1 2 1
direct
   0.5455505000000000    0.7764210000000001    0.7710185000000001 Cl
   0.0036704999999999    0.7764745000000000    0.2292530000000000 Cl
   0.0034725000000000    0.2315565000000000    0.7718149999999999 Cl
   0.4591279999999999    0.2318455000000000    0.2273555000000000 Cl
   0.0025985000000000    0.2329345000000000    0.2272950000000000 Cl
   0.0046825000000001    0.7762050000000000    0.7719395000000000 Cl
   0.0014105000000000    0.0019975000000000    0.9997430000000000 Cr
   0.5044685000000001    0.7554285000000002    0.2498990000000000 Cs
   0.5043360000000000    0.2559400000000000    0.7494430000000000 Cs
   0.0019495000000000    0.5024800000000000    0.4998274999999999 Hg
