Cs2 Sr1 Pd1 Cl6
1.0
  -5.6800970717303896    0.0000000000000000    0.8159301624971651
  -0.2589643033784238    6.4556505729787057   -3.1216431113991612
   0.2589643033784238   -6.4556505729787057   -5.5602203486008399
Cl Cs Pd Sr
6 2 1 1
direct
   0.2285984999999999    0.8549309999999999    0.1515810000000000 Cl
   0.7858200000000000    0.6902600000000001    0.8311260000000000 Cl
   0.2042464999999999    0.3088895000000000    0.1633900000000000 Cl
   0.7641009999999999    0.1429129999999999    0.8427840000000000 Cl
   0.7143340000000000    0.6798420000000001    0.3438740000000000 Cl
   0.2741715000000000    0.3215780000000000    0.6483500000000000 Cl
   0.7297415000000000    0.2108575000000000    0.4105970000000000 Cs
   0.2586915000000000    0.7908634999999999    0.5831530000000000 Cs
   0.9960880000000000    0.9990829999999999    0.9977149999999999 Pd
   0.4948375000000000    0.4985859999999999    0.9961129999999999 Sr
