Cs2 Na1 Ga1 Cl6
1.0
  -4.1850103795746332   -5.9249622535224935   -0.0033566542932606
  -6.2837059454113255    0.0000000000000000    3.6248177009184315
  -6.2837059454113255    0.0000000000000000   -3.6342936190815682
Cl Cs Ga Na
6 2 1 1
direct
   0.2302204999999999    0.2302474999999999    0.7713905000000001 Cl
   0.2297895000000000    0.7663939999999999    0.7709435000000000 Cl
   0.7667695000000000    0.2296010000000001    0.2347184999999999 Cl
   0.7664165000000001    0.7662500000000000    0.2343094999999999 Cl
   0.7659350000000000    0.2300995000000000    0.7715179999999999 Cl
   0.2302415000000000    0.7663055000000001    0.2341934999999999 Cl
   0.2478925000000001    0.2478435000000000    0.2531974999999999 Cs
   0.7479400000000000    0.7478454999999998    0.7528750000000000 Cs
   0.9981510000000000    0.9980425000000001    0.0028210000000000 Ga
   0.4979950000000000    0.4978795000000000    0.5027760000000000 Na
