Cs4 Tl2 Sb2 Cl12
1.0
  -6.7506943688604837    0.0000000000000000    3.7970036495795632
  -2.3094031431989421    6.5492159540672850   -4.1070341937194481
  -4.4412912256615416   -6.5492159540672850   -7.9564460167009887
Cs Tl Sb Cl
4 2 2 12
direct
   0.0142930000000000    0.4404709999999999    0.7500540000000000 Cs
   0.5143070000000001    0.0519359999999999    0.2506020000000000 Cs
   0.4808970000000000    0.9396620000000000    0.7491630000000000 Cs
   0.9796770000000000    0.5525749999999999    0.2486239999999998 Cs
   0.4972200000000001    0.4962719999999999    0.0000410000000000 Tl
   0.9977880000000000    0.9962720000000000    0.4993970000000000 Tl
   0.9975320000000000    0.9963520000000001    0.9989920000000000 Sb
   0.4974410000000001    0.4958519999999999    0.4997210000000000 Sb
   0.1832159999999999    0.7227770000000000    0.9652770000000001 Cl
   0.7752410000000001    0.3076300000000000    0.4658409999999999 Cl
   0.7190580000000000    0.8087629999999999    0.0319080000000000 Cl
   0.3122020000000000    0.2228790000000000    0.5337700000000001 Cl
   0.2756409999999998    0.1836090000000000    0.9657100000000001 Cl
   0.6847670000000000    0.7679049999999999    0.4650380000000000 Cl
   0.8125820000000000    0.2697919999999999    0.0316850000000000 Cl
   0.2199790000000000    0.6842670000000000    0.5319909999999999 Cl
   0.9327400000000000    0.0069580000000000    0.7668910000000000 Cl
   0.4308320000000000    0.4850470000000000    0.2680860000000000 Cl
   0.5611750000000000    0.5069290000000001    0.7322010000000001 Cl
   0.0608940000000000    0.9859480000000000    0.2314530000000000 Cl
