Cs2 Li1 La1 Cl6
1.0
   0.0000000000000000    5.4273769999999999    5.4273769999999999
   5.4273769999999999    0.0000000000000000    5.4273769999999999
   5.4273769999999999    5.4273769999999999    0.0000000000000000
Cs Li La Cl
2 1 1 6
direct
   0.7500000000000000    0.7500000000000000    0.7500000000000000 Cs
   0.2500000000000000    0.2500000000000000    0.2500000000000000 Cs
   0.5000000000000000    0.5000000000000000    0.5000000000000000 Li
   0.0000000000000000    0.0000000000000000    0.0000000000000000 La
   0.7438420000000000    0.2561580000000000    0.2561580000000000 Cl
   0.2561580000000000    0.2561580000000000    0.7438420000000000 Cl
   0.2561580000000000    0.7438420000000000    0.7438420000000000 Cl
   0.2561580000000000    0.7438420000000000    0.2561580000000000 Cl
   0.7438420000000000    0.2561580000000000    0.7438420000000000 Cl
   0.7438420000000000    0.7438420000000000    0.2561580000000000 Cl
