Cs2 Rb1 Ni1 Cl6
1.0
  -4.1285600727384377   -6.1826223669415219   -0.0099275062223283
   0.0000000000000000    0.0000000000000000   -7.4523197650000004
   2.5831778097335372   -6.1826223669415219   -3.7231970137936328
Cl Cs Ni Rb
6 2 1 1
direct
   0.2385710000000000    0.8210035000000000    0.0018224999999999 Cl
   0.7723035000000000    0.7744750000000000    0.4498614999999999 Cl
   0.2204414999999998    0.2263479999999999    0.5579495000000002 Cl
   0.7584450000000000    0.1790910000000000    0.0056910000000000 Cl
   0.8204720000000000    0.7641169999999999    0.9996850000000000 Cl
   0.1770620000000001    0.2366680000000000    0.0084700000000000 Cl
   0.7446165000000000    0.2499140000000001    0.5037864999999999 Cs
   0.2446119999999999    0.7502175000000000    0.5035085000000000 Cs
   0.9998560000000001    0.0006885000000000    0.0033705000000000 Ni
   0.4981139999999998    0.5003540000000000    0.0037020000000001 Rb
