Cs2 Pd1 Pb1 Cl6
1.0
  -4.3519658806103703   -6.1505752490132517   -0.0015462764304770
   2.1780611196877460   -6.1505752490132517   -3.7688195149308585
   2.1780611196877460   -6.1505752490132517    3.7764794950691414
Cl Cs Pb Pd
6 2 1 1
direct
   0.2651975000000000    0.7324384999999999    0.2652110000000000 Cl
   0.7374480000000001    0.2591540000000000    0.2660009999999999 Cl
   0.2663840000000000    0.7343470000000001    0.7353145000000000 Cl
   0.7389525000000001    0.2628215000000000    0.7356575000000000 Cl
   0.7381480000000000    0.7337300000000000    0.2635689999999999 Cl
   0.2653225000000000    0.2621485000000000    0.7364045000000000 Cl
   0.7532295000000000    0.7460365000000000    0.7494075000000000 Cs
   0.2534670000000000    0.2459490000000000    0.2491684999999998 Cs
   0.0028405000000001    0.9967984999999999    0.0002454999999997 Pb
   0.5028420000000000    0.4968820000000000    0.5007480000000000 Pd
