Cs4 Ti2 Ni2 Cl12
1.0
  -6.4343161740812498    0.0000000000000000    4.0945391361133838
  -2.6317523613051428    5.9002150381882794   -4.1462288782135994
  -3.8025638127761070   -5.9002150381882794   -5.9885094856730170
Cs Ti Ni Cl
4 2 2 12
direct
   0.0040800000000000    0.4871960000000000    0.7509859999999999 Cs
   0.5047080000000002    0.0104299999999998    0.2506049999999999 Cs
   0.5057220000000000    0.0118409999999999    0.7562430000000000 Cs
   0.0049930000000000    0.4883830000000000    0.2561590000000000 Cs
   0.4960250000000000    0.5042049999999998    0.0039039999999999 Ti
   0.9957649999999999    0.9947279999999999    0.5035660000000000 Ti
   0.9620260000000002    0.9170599999999999    0.0034999999999998 Ni
   0.4585690000000001    0.5788300000000000    0.5043659999999999 Ni
   0.2761280000000000    0.7352449999999999    0.0027029999999999 Cl
   0.7762490000000000    0.2149650000000000    0.5018229999999999 Cl
   0.7293920000000002    0.7342569999999998    0.0022419999999999 Cl
   0.2296200000000000    0.2108019999999999    0.5030790000000001 Cl
   0.2761160000000001    0.2827189999999999    0.0034319999999999 Cl
   0.7755119999999999    0.7653070000000000    0.5045740000000001 Cl
   0.7273610000000000    0.2878789999999999    0.0036999999999999 Cl
   0.2293510000000000    0.7645430000000000    0.5052049999999999 Cl
   0.0069530000000000    0.0045649999999999    0.7745009999999999 Cl
   0.5090190000000000    0.4985660000000000    0.2747170000000000 Cl
   0.5113669999999999    0.4962790000000000    0.7329100000000000 Cl
   0.0106179999999999    0.0021270000000000    0.2327600000000000 Cl
