Cs2 K1 Sc1 Cl6
1.0
   2.2089933292914945   -6.2489989833909885    3.7937423437851749
   4.4249130375096470    6.2489989833909885    0.1002201236485956
  -6.6339063668011411   -0.0000000000000000    3.8558051525662296
Cl Cs K Sc
6 2 1 1
direct
   0.2369294999999998    0.9964769999999999    0.3068395000000000 Cl
   0.3165175000000000    0.0163279999999999    0.7670250000000000 Cl
   0.6828140000000000    0.9830940000000000    0.2315910000000001 Cl
   0.7620054999999999    0.0029819999999998    0.6922100000000000 Cl
   0.2687984999999998    0.5476899999999998    0.2871480000000000 Cl
   0.7302614999999999    0.4514149999999999    0.7113700000000001 Cl
   0.7483795000000000    0.5000799999999999    0.2507420000000000 Cs
   0.2500520000000001    0.4996570000000000    0.7467365000000000 Cs
   0.9997799999999999    0.9992219999999998    0.9988399999999998 K
   0.4995270000000001    0.9995520000000001    0.4991555000000000 Sc
