Cs2 In1 Cu1 Cl6
1.0
   0.0000000000000000    5.1728290000000001    5.1728290000000001
   5.1728290000000001    0.0000000000000000    5.1728290000000001
   5.1728290000000001    5.1728290000000001    0.0000000000000000
Cs In Cu Cl
2 1 1 6
direct
   0.7500000000000000    0.7500000000000000    0.7500000000000000 Cs
   0.2500000000000000    0.2500000000000000    0.2500000000000000 Cs
   0.0000000000000000    0.0000000000000000    0.0000000000000000 In
   0.5000000000000000    0.5000000000000000    0.5000000000000000 Cu
   0.7482630000000000    0.2517370000000000    0.2517370000000000 Cl
   0.2517370000000000    0.2517370000000000    0.7482630000000000 Cl
   0.2517370000000000    0.7482630000000000    0.7482630000000000 Cl
   0.2517370000000000    0.7482630000000000    0.2517370000000000 Cl
   0.7482630000000000    0.2517370000000000    0.7482630000000000 Cl
   0.7482630000000000    0.7482630000000000    0.2517370000000000 Cl
