Cs2 K1 Ga1 Cl6
1.0
   6.5406464928169603   -0.0000000000000000    3.7727437149683194
  -0.0000000000000000   -0.0000000000000000    7.5520647949999997
   2.1810923014009149   -6.1727579362932801    3.7721566103433721
Cl Cs Ga K
6 2 1 1
direct
   0.7753935000000000    0.2129395000000000    0.2300095000000000 Cl
   0.2210235000000000    0.7722335000000001    0.2240130000000000 Cl
   0.7779309999999998    0.2219010000000002    0.7808580000000001 Cl
   0.2236480000000000    0.7814549999999999    0.7753550000000000 Cl
   0.2183710000000000    0.2216930000000000    0.7873950000000001 Cl
   0.7803924999999999    0.7735515000000001    0.2177400000000002 Cl
   0.2493820000000000    0.2472300000000000    0.2524370000000000 Cs
   0.7492859999999999    0.7472030000000003    0.7525775000000000 Cs
   0.9994969999999999    0.9974720000000000    0.0023950000000000 Ga
   0.4997509999999999    0.4976590000000001    0.5021535000000001 K
