Cs2 Cd1 Pt1 Cl6
1.0
   1.8182839194744786   -5.6930495725146519    3.5187652934785691
  -6.1714792112442369   -0.0000000000000000    3.3000672032472713
  -4.3531952917697581   -5.6930495725146519   -1.5777360882741602
Cd Cl Cs Pt
1 6 2 1
direct
   0.9998685000000000    0.9991150000000000    0.9969280000000000 Cd
   0.3314735000000004    0.2026255000000001    0.0248059999999998 Cl
   0.1907970000000002    0.6336880000000000    0.0644840000000000 Cl
   0.8093215000000000    0.3663550000000001    0.9345030000000000 Cl
   0.6685985000000001    0.7986030000000000    0.9722340000000000 Cl
   0.1923405000000001    0.1726175000000001    0.5999180000000000 Cl
   0.8086450000000002    0.8312714999999999    0.3945149999999999 Cl
   0.7328850000000002    0.2781980000000001    0.4940849999999999 Cs
   0.2667695000000001    0.7233840000000000    0.5041109999999999 Cs
   0.5002615000000001    0.5002075000000001    0.9987800000000000 Pt
