Cs4 Ca2 Pd2 Cl12
1.0
   1.5067188219843004   -6.0780379934783886    3.0710727918940770
   6.2627196787894164   -0.0000000000000000   -3.0686264013117190
   4.7560008568051160    6.0780379934783886    9.6419747767942034
Cs Ca Pd Cl
4 2 2 12
direct
   0.4974150000000001    0.0021390000000000    0.2491830000000000 Cs
   0.0017990000000000    0.5047659999999999    0.7499780000000000 Cs
   0.9963660000000000    0.5001580000000001    0.2497300000000000 Cs
   0.4999109999999999    0.0020489999999999    0.7494670000000001 Cs
   0.9989869999999998    0.0024439999999999    0.9997480000000001 Ca
   0.4981089999999999    0.5012209999999999    0.4997700000000000 Ca
   0.4989820000000000    0.5021260000000001    0.0002650000000000 Pd
   0.9981480000000000    0.0016290000000000    0.5002100000000000 Pd
   0.3332130000000000    0.7895419999999999    0.9991910000000002 Cl
   0.7105619999999999    0.1668900000000000    0.4989960000000000 Cl
   0.2118620000000000    0.3366160000000001    0.0008990000000000 Cl
   0.8335359999999999    0.7136910000000000    0.4992580000000000 Cl
   0.7867269999999998    0.6670680000000000    0.9990540000000001 Cl
   0.1630350000000000    0.2892119999999999    0.5001870000000002 Cl
   0.6636740000000000    0.2142329999999999    0.9996650000000001 Cl
   0.2863999999999999    0.8372289999999999    0.4998840000000001 Cl
   0.9970319999999999    0.9999660000000000    0.2142960000000000 Cl
   0.5018830000000000    0.5024470000000000    0.7144330000000001 Cl
   0.4960070000000000    0.5026410000000000    0.2846740000000000 Cl
   0.9993290000000000    0.0049690000000000    0.7847680000000000 Cl
