Cs2 Ni1 Pb1 Cl6
1.0
  -2.1422918186561875    6.0541155501098141   -3.6999075940775659
   0.0000000000000000    0.0000000000000000    7.4129182199999999
   6.4243114025094465    0.0000000000000000   -3.7031859559932845
Cl Cs Ni Pb
6 2 1 1
direct
   0.7680914999999999    0.9988969999999999    0.7665239999999999 Cl
   0.7674659999999999    0.9969530000000000    0.2262360000000000 Cl
   0.2285675000000000    0.9987429999999998    0.7669334999999999 Cl
   0.2280105000000000    0.9971630000000000    0.2258540000000001 Cl
   0.2288235000000002    0.4588280000000001    0.2278290000000001 Cl
   0.7685069999999999    0.5380880000000001    0.7654259999999999 Cl
   0.7483884999999999    0.4974739999999999    0.2459845000000001 Cs
   0.2483470000000000    0.4974569999999997    0.7460744999999999 Cs
   0.9971935000000000    0.9997179999999999    0.9968405000000000 Ni
   0.4977230000000001    0.9989089999999999    0.4966720000000000 Pb
