Cs4 Sr2 Be2 Cl12
1.0
   2.9567298963151925   -5.8762176901662073    3.8600950961253675
   7.2824299730836612   -0.0000000000000000   -5.5705395472185231
   4.3257000767684683    5.8762176901662073    5.6439987866561108
Cs Sr Be Cl
4 2 2 12
direct
   0.4796659999999999    0.0824650000000000    0.2251620000000001 Cs
   0.9794430000000001    0.4183509999999999    0.7248820000000001 Cs
   0.9786980000000000    0.4184480000000000    0.2717350000000000 Cs
   0.4784660000000001    0.0825230000000000    0.7719380000000001 Cs
   0.5041040000000001    0.5433850000000000    0.9987640000000001 Sr
   0.0041250000000000    0.9568920000000001    0.4986080000000001 Sr
   0.0185650000000001    0.8659509999999999    0.9988550000000003 Be
   0.5188120000000001    0.6340660000000000    0.4989620000000001 Be
   0.2782850000000000    0.8002210000000000    0.0004180000000001 Cl
   0.7479520000000001    0.1739610000000000    0.4992220000000001 Cl
   0.2479020000000001    0.3264429999999999    0.9985310000000001 Cl
   0.7782140000000001    0.7002649999999999    0.4996840000000001 Cl
   0.8554220000000001    0.6896270000000000    0.9979140000000001 Cl
   0.2237630000000000    0.2004140000000001    0.4979910000000000 Cl
   0.7240520000000001    0.2996489999999999    0.9981200000000001 Cl
   0.3552990000000000    0.8102159999999999    0.4981200000000000 Cl
   0.9773579999999999    0.9849610000000000    0.1804690000000000 Cl
   0.4783530000000000    0.5148860000000000    0.6806470000000000 Cl
   0.4806750000000000    0.5146630000000001    0.3173150000000002 Cl
   0.9801710000000000    0.9851510000000000    0.8170930000000001 Cl
