Cs2 Mg1 Pd1 Cl6
1.0
  -0.2836580626713868    5.7890496858487301   -0.9014305016196315
  -6.0880864107677395    0.0000000000000000    3.1435305878575894
   6.0880864107677395    0.0000000000000000    4.8484841921424104
Cl Cs Mg Pd
6 2 1 1
direct
   0.7612225000000000    0.3337040000000001    0.1312900000000000 Cl
   0.7477045000000000    0.8128520000000001    0.1466480000000001 Cl
   0.2552985000000000    0.1906624999999999    0.8524879999999999 Cl
   0.2415480000000000    0.6686344999999999    0.8672459999999999 Cl
   0.2201375000000000    0.1616155000000000    0.3115280000000000 Cl
   0.7822610000000001    0.8398135000000000    0.6860489999999999 Cl
   0.7682005000000001    0.2899939999999999    0.5805419999999999 Cs
   0.2350635000000000    0.7128270000000001    0.4168869999999999 Cs
   0.0016385000000000    0.0011825000000000    0.9986420000000000 Mg
   0.5019100000000001    0.5018395000000000    0.9995780000000000 Pd
