Cs2 Tl1 Ni1 Cl6
1.0
   4.2282761977582544    6.0009379390510622   -0.0210168174202270
  -0.0000000000000000   -0.0000000000000000    7.3424933399999999
   2.1445859888509098   -6.0009379390510622   -3.6610531249466964
Cl Cs Ni Tl
6 2 1 1
direct
   0.7733985000000000    0.2282794999999999    0.9994080000000001 Cl
   0.2318230000000000    0.2286459999999999    0.4574630000000001 Cl
   0.7730694999999999    0.7703320000000000    0.5412145000000000 Cl
   0.2315165000000000    0.7702384999999999    0.9992510000000000 Cl
   0.2317110000000000    0.2293305000000000    0.9992695000000000 Cl
   0.7726280000000000    0.7702289999999999    0.9996440000000000 Cl
   0.2516765000000000    0.7493939999999999    0.4990834999999999 Cs
   0.7520155000000001    0.2496255000000001    0.4995820000000001 Cs
   0.0036585000000000    0.9993974999999999    0.9995240000000000 Ni
   0.5026580000000000    0.4993305000000000    0.9994335000000001 Tl
