Cs2 Ca1 Mn1 Cl6
1.0
   2.1350488282493005   -6.0387024120452164   -3.6946988653146629
  -0.0000000000000000   -0.0000000000000000   -7.3948608849999999
   6.4065517237177554   -0.0000000000000000   -3.6958062895356236
Ca Cl Cs Mn
1 6 2 1
direct
   0.0003534999999999    0.0003555000000003    0.9999980000000001 Ca
   0.2603985000000000    0.7433405000000002    0.7400504999999999 Cl
   0.2605249999999999    0.7432350000000001    0.2574155000000001 Cl
   0.7413195000000001    0.2604345000000002    0.7419474999999999 Cl
   0.7429155000000002    0.2590965000000001    0.2589865000000000 Cl
   0.7428460000000001    0.7411930000000000    0.2596040000000000 Cl
   0.2579390000000000    0.2608130000000001    0.7415875000000000 Cl
   0.2512659999999999    0.2516050000000002    0.2497405000000000 Cs
   0.7512090000000001    0.7516070000000000    0.7497145000000000 Cs
   0.5004925000000001    0.5004415000000000    0.5000620000000001 Mn
