Cs2 Tb1 Ag1 Cl6
1.0
   0.0000000000000000    5.4442969999999997    5.4442969999999997
   5.4442969999999997    0.0000000000000000    5.4442969999999997
   5.4442969999999997    5.4442969999999997    0.0000000000000000
Cs Tb Ag Cl
2 1 1 6
direct
   0.7500000000000000    0.7500000000000000    0.7500000000000000 Cs
   0.2500000000000000    0.2500000000000000    0.2500000000000000 Cs
   0.0000000000000000    0.0000000000000000    0.0000000000000000 Tb
   0.5000000000000000    0.5000000000000000    0.5000000000000000 Ag
   0.7559010000000000    0.2440990000000000    0.2440990000000000 Cl
   0.2440990000000000    0.2440990000000000    0.7559010000000000 Cl
   0.2440990000000000    0.7559010000000000    0.7559010000000000 Cl
   0.2440990000000000    0.7559010000000000    0.2440990000000000 Cl
   0.7559010000000000    0.2440990000000000    0.7559010000000000 Cl
   0.7559010000000000    0.7559010000000000    0.2440990000000000 Cl
