Cs2 Ba1 Mg1 Cl6
1.0
   6.6471768063736754   -0.0000000000000000    3.8652152633961374
  -2.2171727112666018    6.3072132161335928    3.8057346525904228
  -4.4300040951070736   -6.3072132161335928    0.1077918690134405
Ba Cl Cs Mg
1 6 2 1
direct
   0.9989910000000002    0.0015355000000000    0.9999084999999999 Ba
   0.2814460000000002    0.2886540000000000    0.5450670000000000 Cl
   0.3133250000000002    0.7684574999999999    0.0084895000000000 Cl
   0.6841445000000000    0.2338894999999999    0.9904360000000000 Cl
   0.7173129999999999    0.7142649999999999    0.4545790000000000 Cl
   0.2264330000000001    0.3013695000000001    0.9795275000000001 Cl
   0.7722455000000000    0.7010475000000000    0.0203410000000001 Cl
   0.7450940000000000    0.2529320000000000    0.4998160000000000 Cs
   0.2527190000000000    0.7504924999999998    0.4999364999999998 Cs
   0.4990680000000001    0.5014765000000000    0.9998655000000001 Mg
