Cs2 Mg1 V1 Cl6
1.0
  -6.1802507313647563    0.0000000000000000    3.5693401257347865
  -2.0527030591064936    5.8299673568602328   -3.5700749586713969
   2.0527030591064936   -5.8299673568602328   -3.5730050213286035
Cl Cs Mg V
6 2 1 1
direct
   0.2484890000000000    0.7497745000000000    0.9999469999999998 Cl
   0.7481190000000000    0.7487699999999999    0.0000039999999999 Cl
   0.2479974999999999    0.2487890000000000    0.9998769999999999 Cl
   0.7480300000000000    0.2499290000000000    0.9999290000000001 Cl
   0.7483180000000000    0.7490509999999999    0.4992660000000000 Cl
   0.2489770000000001    0.2496555000000000    0.5003780000000000 Cl
   0.7478270000000000    0.2490300000000001    0.4998940000000001 Cs
   0.2478005000000002    0.7489760000000001    0.4999090000000000 Cs
   0.9971314999999999    0.9989179999999999    0.9998060000000000 Mg
   0.4963979999999999    0.4990009999999999    0.9996459999999999 V
