Cs2 Er1 Cu1 Cl6
1.0
   0.0000000000000000    5.2490449999999997    5.2490449999999997
   5.2490449999999997    0.0000000000000000    5.2490449999999997
   5.2490449999999997    5.2490449999999997    0.0000000000000000
Cs Er Cu Cl
2 1 1 6
direct
   0.7500000000000000    0.7500000000000000    0.7500000000000000 Cs
   0.2500000000000000    0.2500000000000000    0.2500000000000000 Cs
   0.0000000000000000    0.0000000000000000    0.0000000000000000 Er
   0.5000000000000000    0.5000000000000000    0.5000000000000000 Cu
   0.7493600000000000    0.2506400000000000    0.2506400000000000 Cl
   0.2506400000000000    0.2506400000000000    0.7493600000000000 Cl
   0.2506400000000000    0.7493600000000000    0.7493600000000000 Cl
   0.2506400000000000    0.7493600000000000    0.2506400000000000 Cl
   0.7493600000000000    0.2506400000000000    0.7493600000000000 Cl
   0.7493600000000000    0.7493600000000000    0.2506400000000000 Cl
