Cs2 Li1 In1 Cl6
1.0
   2.1043224733867532   -5.9468675450657420   -3.6387512406707434
   4.2042645052570951    5.9468675450657420   -0.0044851710798719
  -0.0000000000000000   -0.0000000000000000    7.2826072499999999
Cl Cs In Li
6 2 1 1
direct
   0.9985680000000000    0.7510770000000000    0.2440850000000000 Cl
   0.4908870000000000    0.2433410000000000    0.2441240000000001 Cl
   0.5064264999999999    0.7511544999999999    0.7518110000000000 Cl
   0.9988160000000000    0.2434185000000000    0.7519475000000000 Cl
   0.9988180000000000    0.2435255000000000    0.2442345000000000 Cl
   0.9978210000000002    0.7502305000000000    0.7515845000000002 Cl
   0.4986435000000000    0.2467900000000000    0.7476775000000000 Cs
   0.4989275000000001    0.7471410000000001    0.2475775000000000 Cs
   0.9987155000000000    0.9970760000000001    0.9977914999999999 In
   0.9993290000000000    0.4970835000000000    0.4973235000000000 Li
