Cs2 Hg1 Ru1 Cl6
1.0
  -4.4055244207087316   -6.2113714424896616    0.0259315104163997
   2.2352727845004705   -6.2113714424896616   -3.8117588829216871
   2.2352727845004705   -6.2113714424896616    3.8681043570783133
Cl Cs Hg Ru
6 2 1 1
direct
   0.2851175000000000    0.7153815000000001    0.2843089999999998 Cl
   0.7157905000000000    0.2801215000000000    0.2859625000000001 Cl
   0.2865445000000000    0.7156065000000001    0.7176079999999998 Cl
   0.7175005000000000    0.2805445000000001    0.7189150000000000 Cl
   0.7209045000000001    0.7123284999999999    0.2891495000000000 Cl
   0.2809705000000000    0.2841525000000001    0.7148329999999998 Cl
   0.7519130000000001    0.7478200000000000    0.7517270000000000 Cs
   0.2522130000000000    0.2478790000000000    0.2509025000000000 Cs
   0.0015255000000000    0.9974155000000000    0.0017025000000001 Hg
   0.5013345000000000    0.4980115000000001    0.5015374999999999 Ru
