Cs4 In2 Au2 Cl12
1.0
  -6.0591813610727048    0.0000000000000000    4.3068506326331359
   0.9722538756164443   -6.1558661705316906    4.0726945378639456
   5.0869274854562603    6.1558661705316906    8.4380824895029178
Cs In Au Cl
4 2 2 12
direct
   0.9673380000000000    0.5059340000000001    0.2448950000000000 Cs
   0.5203040000000000    0.9824820000000000    0.7520700000000000 Cs
   0.4837550000000000    0.0095619999999999    0.2467500000000000 Cs
   0.0368420000000000    0.4874319999999999    0.7531870000000001 Cs
   0.5016209999999999    0.4957959999999998    0.9989270000000000 In
   0.0007220000000000    0.9972359999999999    0.4996560000000000 In
   0.0019830000000001    0.9959299999999999    0.9988629999999999 Au
   0.5009829999999997    0.4968289999999999    0.4994790000000000 Au
   0.2888550000000000    0.2770969999999999    0.0021180000000001 Cl
   0.8449700000000000    0.7347109999999999    0.5181210000000001 Cl
   0.7748530000000000    0.2290170000000000    0.0670910000000000 Cl
   0.3499409999999999    0.7949639999999998    0.5126309999999999 Cl
   0.2294829999999999    0.7634149999999997    0.9302130000000000 Cl
   0.6512490000000000    0.1984419999999999    0.4865340000000000 Cl
   0.7133800000000000    0.7152579999999998    0.9966010000000000 Cl
   0.1566450000000000    0.2595619999999999    0.4811790000000000 Cl
   0.0145650000000000    0.9702080000000000    0.2863700000000000 Cl
   0.5652349999999999    0.4492149999999999    0.7878529999999999 Cl
   0.4387770000000000    0.5426540000000000    0.2100480000000001 Cl
   0.9870880000000001    0.0247959999999999    0.7129450000000001 Cl
