Cs2 K1 Cr1 Cl6
1.0
  -2.1675438249425620    6.1489122894210757   -3.7618407039873625
   0.0000000000000000    0.0000000000000000   -7.5270000799999996
  -6.5225286424740743    0.0000000000000000   -3.7607787016665704
Cl Cr Cs K
6 1 2 1
direct
   0.7780309999999999    0.7782525000000000    0.2212535000000001 Cl
   0.7782380000000000    0.2191665000000000    0.7798594999999999 Cl
   0.2204190000000000    0.7762880000000001    0.2214690000000000 Cl
   0.2218310000000000    0.2174885000000001    0.7789155000000000 Cl
   0.2194795000000000    0.7757120000000000    0.7796350000000000 Cl
   0.7805340000000001    0.2187535000000000    0.2199455000000000 Cl
   0.0007215000000000    0.9971585000000001    0.9992775000000000 Cr
   0.7480184999999999    0.7476255000000001    0.7519125000000000 Cs
   0.2480355000000000    0.2476799999999999    0.2518190000000000 Cs
   0.5002570000000000    0.4972910000000000    0.4996210000000001 K
