Cs2 Tl1 Rh1 Cl6
1.0
  -6.5071852254066265    0.0000000000000000   -3.7583907196639168
  -6.5071852254066265    0.0000000000000000    3.7598521603360830
  -2.1705737489192591    6.1451690226227189   -3.7537627973756575
Cl Cs Rh Tl
6 2 1 1
direct
   0.0051360000000000    0.2203020000000000    0.7765255000000000 Cl
   0.0032060000000000    0.7783334999999999    0.7775495000000001 Cl
   0.0052690000000001    0.2207160000000000    0.2190035000000000 Cl
   0.0031040000000000    0.7783265000000000    0.2208585000000000 Cl
   0.5619799999999999    0.2208300000000001    0.2198820000000000 Cl
   0.4476210000000000    0.7765709999999999    0.7778475000000001 Cl
   0.5038200000000000    0.2491740000000000    0.7491095000000001 Cs
   0.5038419999999999    0.7491134999999999    0.2490610000000000 Cs
   0.0046330000000000    0.9990109999999999    0.9986205000000001 Rh
   0.0046539999999999    0.4989460000000001    0.4984855000000001 Tl
