Cs2 Ti1 Pb1 Cl6
1.0
   0.0000000000000000    0.0000000000000000   -7.5783839950000003
   6.5658988232465116    0.0000000000000000   -3.7878193678692051
   2.1883108001947456   -6.1938845220698706   -3.7880037948664267
Cl Cs Pb Ti
6 2 1 1
direct
   0.7369479999999999    0.7365060000000001    0.2552560000000000 Cl
   0.7288140000000001    0.2604730000000000    0.2708609999999999 Cl
   0.2635845000000001    0.7493105000000001    0.7267595000000000 Cl
   0.2554230000000000    0.2730345000000000    0.7426460000000001 Cl
   0.7310165000000000    0.2718750000000000    0.7356265000000001 Cl
   0.2610080000000001    0.7374640000000000    0.2620040000000000 Cl
   0.2450999999999999    0.2558025000000000    0.2483270000000000 Cs
   0.7467190000000001    0.7541294999999999    0.7499560000000002 Cs
   0.9959530000000001    0.0049444999999999    0.9989300000000001 Pb
   0.4960979999999999    0.5047235000000000    0.4987870000000000 Ti
