Cs2 Ag1 Au1 Cl6
1.0
   6.3723716542503830   -0.0000000000000000   -3.4856356630660197
   1.8959095958392347   -6.0870566637393058    3.4860121177962111
  -6.3723716542503830   -0.0000000000000000   -4.0999983669339795
Ag Au Cl Cs
1 1 6 2
direct
   0.9960209999999999    0.0011729999999999    0.9960229999999999 Ag
   0.4957270000000000    0.5007629999999998    0.9953980000000000 Au
   0.7226499999999998    0.2764830000000000    0.9987169999999999 Cl
   0.2709025000000000    0.2768839999999999    0.9988760000000000 Cl
   0.7206500000000000    0.7245245000000000    0.9918770000000000 Cl
   0.2683675000000000    0.7245045000000000    0.9914970000000001 Cl
   0.7847230000000001    0.7871494999999999    0.5686690000000000 Cl
   0.2091349999999998    0.2115549999999998    0.4233789999999999 Cl
   0.7460249999999999    0.2500280000000000    0.4955169999999999 Cs
   0.2472645000000000    0.7503345000000000    0.4956329999999999 Cs
