Cs2 Al1 Tl1 Cl6
1.0
  -4.3625829647975252   -6.1765501089081694   -0.0016183355762927
  -6.5500385763434679    0.0000000000000000    3.7818158520261376
  -6.5500385763434679    0.0000000000000000   -3.7898032779738626
Al Cl Cs Tl
1 6 2 1
direct
   0.9985905000000000    0.0011235000000001    0.0007465000000001 Al
   0.2182835000000001    0.2165740000000001    0.7849265000000000 Cl
   0.2184234999999999    0.7811475000000000    0.7855445000000001 Cl
   0.7789330000000000    0.2214065000000001    0.2157529999999999 Cl
   0.7790450000000000    0.7853940000000000    0.2162880000000000 Cl
   0.7848149999999999    0.2174574999999999    0.7793850000000001 Cl
   0.2119190000000000    0.7841575000000000    0.2223710000000002 Cl
   0.2486364999999999    0.2516595000000000    0.2507205000000002 Cs
   0.7486515000000000    0.7514414999999999    0.7507755000000000 Cs
   0.4984770000000001    0.5013725000000000    0.5008279999999999 Tl
