Cs2 Na1 Mo1 Cl6
1.0
   0.0000000000000000    0.0000000000000000   -7.3281146550000003
  -6.3500945930811978    0.0000000000000000   -3.6594685006877823
  -2.1148979448371725    5.9877307106628237   -3.6594803224723180
Cl Cs Mo Na
6 2 1 1
direct
   0.7656775000000000    0.2389424999999998    0.7650505000000000 Cl
   0.2396635000000001    0.7650675000000000    0.7649144999999999 Cl
   0.7663725000000000    0.2384484999999998    0.2389050000000000 Cl
   0.2394379999999999    0.7656010000000000    0.2389830000000001 Cl
   0.7656795000000001    0.7650235000000000    0.2383235000000000 Cl
   0.2394910000000002    0.2387420000000000    0.7659205000000001 Cl
   0.7526790000000000    0.7518160000000000    0.7518760000000000 Cs
   0.2527425000000002    0.2518775000000000    0.2519469999999999 Cs
   0.0026895000000001    0.0018175000000000    0.0018759999999999 Mo
   0.5026225000000000    0.5016954999999998    0.5017940000000001 Na
