Cs2 Na1 Sb1 Cl6
1.0
   0.0000000000000000    0.0000000000000000   -7.5614444949999999
  -6.5513954614069814    0.0000000000000000   -3.7789909546343292
  -2.1823409105844465    6.1778317249607966   -3.7803989817611399
Cl Cs Na Sb
6 2 1 1
direct
   0.7479679999999999    0.2491240000000000    0.7441854999999999 Cl
   0.2523740000000000    0.7421560000000000    0.7491120000000000 Cl
   0.7473505000000000    0.2539874999999999    0.2482400000000000 Cl
   0.2521260000000001    0.7490160000000000    0.2509255000000000 Cl
   0.7475520000000000    0.7459810000000000    0.2546970000000000 Cl
   0.2529150000000000    0.2513550000000000    0.7427675000000000 Cl
   0.7497349999999998    0.7488980000000001    0.7483884999999998 Cs
   0.2498560000000000    0.2488109999999999    0.2482325000000000 Cs
   0.9999690000000001    0.9990260000000001    0.9977284999999999 Na
   0.4999580000000000    0.4988930000000000    0.4979489999999999 Sb
