Cs2 Lu1 Ag1 Cl6
1.0
   0.0000000000000000    5.3852520000000004    5.3852520000000004
   5.3852520000000004    0.0000000000000000    5.3852520000000004
   5.3852520000000004    5.3852520000000004    0.0000000000000000
Cs Lu Ag Cl
2 1 1 6
direct
   0.7500000000000000    0.7500000000000000    0.7500000000000000 Cs
   0.2500000000000000    0.2500000000000000    0.2500000000000000 Cs
   0.0000000000000000    0.0000000000000000    0.0000000000000000 Lu
   0.5000000000000000    0.5000000000000000    0.5000000000000000 Ag
   0.7593450000000000    0.2406550000000000    0.2406550000000000 Cl
   0.2406550000000000    0.2406550000000000    0.7593450000000000 Cl
   0.2406550000000000    0.7593450000000000    0.7593450000000000 Cl
   0.2406550000000000    0.7593450000000000    0.2406550000000000 Cl
   0.7593450000000000    0.2406550000000000    0.7593450000000000 Cl
   0.7593450000000000    0.7593450000000000    0.2406550000000000 Cl
