Cs2 K1 Tl1 Cl6
1.0
  -6.7697287330870664    0.0000000000000000   -3.6548084254960136
  -2.3932165209393643    6.3762493091742014   -3.6370203868180608
   0.0000000000000000    0.0000000000000000   -7.9252471550000001
Cl Cs K Tl
6 2 1 1
direct
   0.2799765000000000    0.6595465000000000    0.8022855000000001 Cl
   0.6993880000000000    0.7641819999999999    0.3096989999999999 Cl
   0.2983160000000000    0.2308050000000000    0.6954490000000000 Cl
   0.7148315000000001    0.3387000000000000    0.2031135000000001 Cl
   0.7830635000000000    0.2284855000000000    0.6837004999999999 Cl
   0.2091585000000000    0.7712844999999999    0.3241775000000000 Cl
   0.7517914999999999    0.7463430000000000    0.7438455000000002 Cs
   0.2439199999999999    0.2521640000000000    0.2619120000000001 Cs
   0.9969540000000000    0.9997324999999999    0.0023200000000000 K
   0.4971630000000000    0.4991895000000000    0.5027020000000000 Tl
