Cs4 Sn2 Ge2 Cl12
1.0
  -2.2438644042013864    6.2723794201571748   -3.8514587053120866
  -6.7861916951863517    0.0000000000000000    3.9464240382152909
   4.5423272909849652    6.2723794201571748    7.8668893064726220
Cs Sn Ge Cl
4 2 2 12
direct
   0.5172000000000000    0.9654590000000000    0.2525620000000000 Cs
   0.0178310000000002    0.5357059999999998    0.7527060000000000 Cs
   0.9968070000000000    0.4641720000000000    0.2529600000000000 Cs
   0.4979780000000001    0.0372199999999998    0.7543220000000000 Cs
   0.5089660000000000    0.4975110000000000    0.0059970000000000 Sn
   0.0101760000000001    0.0043960000000000    0.5067580000000000 Sn
   0.0197570000000000    0.0028960000000000    0.0050360000000000 Ge
   0.5205420000000001    0.4986339999999999    0.5051570000000000 Ge
   0.7098990000000001    0.2366440000000000    0.0296780000000000 Cl
   0.2721280000000002    0.8005069999999999    0.5293500000000000 Cl
   0.7700850000000000    0.7026960000000000    0.0248440000000001 Cl
   0.2093180000000001    0.2667259999999998    0.5292519999999999 Cl
   0.1986110000000002    0.2521760000000000    0.9810090000000000 Cl
   0.7623030000000001    0.6908030000000001    0.4798140000000000 Cl
   0.2612720000000003    0.8103539999999998    0.9802780000000000 Cl
   0.6981040000000001    0.2489439999999999    0.4807740000000000 Cl
   0.0490950000000000    0.0014700000000000    0.2228210000000000 Cl
   0.5513200000000001    0.4985059999999998    0.7228480000000000 Cl
   0.4624240000000001    0.5054460000000000    0.2359250000000000 Cl
   0.9616070000000001    0.9969949999999999    0.7362760000000000 Cl
