Cs2 K1 Cu1 Cl6
1.0
   0.8949562295194815   -6.3400772824585427    1.9626698443146224
   6.2999399725950598   -0.0000000000000000   -2.8388921313022015
   6.2999399725950598   -0.0000000000000000    6.1041481236977981
Cl Cs Cu K
6 2 1 1
direct
   0.0998030000000000    0.7041405000000001    0.1372240000000000 Cl
   0.1205189999999998    0.1448294999999999    0.1424400000000001 Cl
   0.8826790000000000    0.8546275000000002    0.8577960000000000 Cl
   0.9034160000000000    0.2951300000000000    0.8625550000000000 Cl
   0.6823830000000000    0.7031525000000001    0.6030430000000000 Cl
   0.3280270000000000    0.3008575000000001    0.3921700000000000 Cl
   0.2297460000000000    0.7508055000000000    0.4943660000000000 Cs
   0.7798005000000000    0.2502560000000001    0.5025130000000001 Cs
   0.0005114999999998    0.9994075000000000    0.0010720000000001 Cu
   0.5017020000000000    0.5005295000000001    0.9978220000000000 K
