Cs2 Tl1 V1 Cl6
1.0
   0.0000000000000000    0.0000000000000000   -7.6082578600000002
   2.1873506346472493   -6.2249342585960443    3.8018884350806799
  -6.6058107063910976    0.0000000000000000    3.7925627034734135
Cl Cs Tl V
6 2 1 1
direct
   0.0096110000000000    0.2836390000000000    0.2844780000000001 Cl
   0.0038710000000000    0.2868174999999999    0.7260605000000000 Cl
   0.9932870000000000    0.7160595000000000    0.2704775000000000 Cl
   0.9883880000000000    0.7211760000000000    0.7103655000000000 Cl
   0.4415759999999999    0.7278195000000001    0.7212965000000000 Cl
   0.5562570000000000    0.2757309999999998    0.2758800000000000 Cl
   0.4966890000000000    0.2503914999999999    0.7467230000000000 Cs
   0.4970009999999999    0.7510910000000000    0.2468509999999999 Cs
   0.9982949999999999    0.0010874999999998    0.9978414999999999 Tl
   0.9987879999999999    0.5015200000000000    0.4981210000000000 V
