Cs2 In1 Hg1 Cl6
1.0
   0.0000000000000000    5.4594600000000000    5.4594600000000000
   5.4594600000000000    0.0000000000000000    5.4594600000000000
   5.4594600000000000    5.4594600000000000    0.0000000000000000
Cs In Hg Cl
2 1 1 6
direct
   0.7500000000000000    0.7500000000000000    0.7500000000000000 Cs
   0.2500000000000000    0.2500000000000000    0.2500000000000000 Cs
   0.0000000000000000    0.0000000000000000    0.0000000000000000 In
   0.5000000000000000    0.5000000000000000    0.5000000000000000 Hg
   0.7631390000000000    0.2368610000000000    0.2368610000000000 Cl
   0.2368610000000000    0.2368610000000000    0.7631390000000000 Cl
   0.2368610000000000    0.7631390000000000    0.7631390000000000 Cl
   0.2368610000000000    0.7631390000000000    0.2368610000000000 Cl
   0.7631390000000000    0.2368610000000000    0.7631390000000000 Cl
   0.7631390000000000    0.7631390000000000    0.2368610000000000 Cl
