Cs2 Sr1 Mg1 Cl6
1.0
  -6.5242875779962786    0.0000000000000000    3.7638315547894083
   0.0000000000000000    0.0000000000000000    7.5324874099999999
  -2.1745550057285583    6.1565251575397477    3.7641740597336679
Cl Cs Mg Sr
6 2 1 1
direct
   0.2357785000000000    0.2288274999999999    0.7682424999999999 Cl
   0.7708015000000000    0.2303324999999999    0.7595695000000000 Cl
   0.2291885000000000    0.7629670000000000    0.2377780000000000 Cl
   0.7616865000000000    0.7669549999999999    0.2318840000000000 Cl
   0.7635710000000000    0.2353014999999999    0.2298235000000000 Cl
   0.2360715000000001    0.7601454999999998    0.7683845000000000 Cl
   0.7497930000000002    0.7472200000000000    0.7492860000000000 Cs
   0.2497385000000001    0.2472900000000000    0.2492000000000000 Cs
   0.9993200000000000    0.9974314999999999    0.9993434999999998 Mg
   0.4992155000000000    0.4974344999999999    0.4994695000000000 Sr
