Cs2 Co1 Pb1 Cl6
1.0
   4.2979166817460355    6.0838223682644967   -0.0009281760061519
  -2.1565245531390014    6.0838223682644967    3.7308514782876898
   6.4544412348850368   -0.0000000000000000    3.7333290107061581
Cl Co Cs Pb
6 1 2 1
direct
   0.5389300000000004    0.2324339999999998    0.2303379999999998 Cl
   0.0007265000000000    0.7674659999999999    0.2295534999999999 Cl
   0.0030165000000002    0.2314440000000001    0.7674034999999998 Cl
   0.4652169999999999    0.7656404999999999    0.7659815000000001 Cl
   0.0016140000000001    0.2298759999999999    0.2311300000000000 Cl
   0.0018765000000003    0.7687390000000000    0.7656534999999999 Cl
   0.0023324999999998    0.9988695000000000    0.9982170000000001 Co
   0.5017005000000001    0.2491489999999999    0.7489874999999999 Cs
   0.5017495000000002    0.7496245000000000    0.2484020000000000 Cs
   0.0020530000000001    0.4991040000000000    0.4984190000000000 Pb
