Cs2 Zn1 Sn1 Cl6
1.0
   0.0000000000000000    0.0000000000000000   -7.4225389000000002
  -6.4336371363606872    0.0000000000000000   -3.7085386391759645
  -2.1458580486162782    6.0696188194591878   -3.7110935024707845
Cl Cs Sn Zn
6 2 1 1
direct
   0.7364115000000000    0.2672585000000001    0.7305339999999999 Cl
   0.2665024999999999    0.7377305000000001    0.7300865000000000 Cl
   0.7363175000000001    0.2680885000000000    0.2607670000000000 Cl
   0.2670460000000000    0.7374900000000000    0.2605235000000000 Cl
   0.7363379999999999    0.7368240000000000    0.2618590000000000 Cl
   0.2665690000000001    0.2675980000000000    0.7295095000000000 Cl
   0.7516015000000000    0.7530985000000000    0.7446805000000000 Cs
   0.2516305000000000    0.2531534999999999    0.2446020000000000 Cs
   0.9998270000000001    0.0034699999999998    0.9949050000000000 Sn
   0.4991740000000000    0.5037770000000000    0.4947294999999999 Zn
