Cs4 Tl2 Mo2 Cl12
1.0
  -6.6380408595351978    0.0000000000000000    3.8767916904578033
  -2.3047553505704812    6.2738855965038951   -3.8326096320455156
  -4.3332855089647166   -6.2738855965038951   -7.7580448374966808
Cs Tl Mo Cl
4 2 2 12
direct
   0.9855539999999999    0.4921610000000001    0.7523830000000000 Cs
   0.5176660000000000    0.0073720000000000    0.2488420000000001 Cs
   0.4867310000000000    0.9885600000000000    0.7520000000000000 Cs
   0.0181840000000000    0.5033370000000000    0.2484430000000000 Cs
   0.5021960000000001    0.4991719999999999    0.0000490000000000 Tl
   0.0009140000000000    0.9970440000000000    0.4997190000000000 Tl
   0.0025620000000001    0.9991560000000000    0.9995840000000000 Mo
   0.5012500000000000    0.4970230000000000    0.5001120000000001 Mo
   0.2094120000000000    0.7598940000000001    0.9705140000000000 Cl
   0.7529349999999999    0.3034900000000000    0.4748170000000000 Cl
   0.7636449999999999    0.7906550000000001    0.0025510000000001 Cl
   0.3046710000000000    0.2479250000000000    0.4865680000000001 Cl
   0.2423140000000001    0.2072330000000000    0.9973350000000000 Cl
   0.6976040000000001    0.7458620000000000    0.5141340000000001 Cl
   0.7948440000000000    0.2379640000000001    0.0278590000000001 Cl
   0.2510180000000000    0.6922960000000000    0.5255790000000000 Cl
   0.9668709999999999    0.0265090000000000    0.7759550000000001 Cl
   0.4833550000000001    0.5359280000000000    0.2762829999999999 Cl
   0.5198690000000001    0.4579690000000000    0.7235890000000000 Cl
   0.0381120000000000    0.9706660000000000    0.2230440000000001 Cl
