Cs2 Li1 Nb1 Cl6
1.0
   6.2733464219386530    0.0000000000000000   -3.5858023182319729
  -2.0683227777615345    5.9194496720316394   -3.5950399487282465
   0.0000000000000000    0.0000000000000000    7.2608111900000001
Cl Cs Li Nb
6 2 1 1
direct
   0.7470770000000000    0.7433120000000000    0.0027560000000000 Cl
   0.2608060000000000    0.7436795000000000    0.0052350000000000 Cl
   0.7460525000000000    0.2543605000000000    0.0008570000000000 Cl
   0.2586175000000000    0.2550114999999999    0.0023960000000000 Cl
   0.2550195000000000    0.2524975000000000    0.5079920000000000 Cl
   0.7527110000000000    0.7455045000000000    0.4992540000000000 Cl
   0.2530405000000000    0.7485845000000000    0.5021650000000000 Cs
   0.7528185000000001    0.2483420000000000    0.5020120000000000 Cs
   0.0037110000000000    0.9980270000000000    0.0024299999999999 Li
   0.5040640000000001    0.4992490000000000    0.0039200000000000 Nb
