Cs2 Rb1 V1 Cl6
1.0
   2.0905705741060219   -6.2910810359705680   -3.6993341089556622
  -0.0000000000000000   -0.0000000000000000   -7.5987697599999997
   6.7474100810509352   -0.0000000000000000   -3.6429323169958816
Cl Cs Rb V
6 2 1 1
direct
   0.2661294999999999    0.7598444999999999    0.6743535000000002 Cl
   0.3351895000000000    0.7008865000000000    0.2346135000000000 Cl
   0.6678474999999999    0.2984225000000000    0.7668465000000000 Cl
   0.7356910000000000    0.2386190000000000    0.3282119999999999 Cl
   0.7471035000000000    0.6888604999999999    0.3017780000000000 Cl
   0.2554629999999999    0.3098560000000000    0.6999204999999999 Cl
   0.2520880000000000    0.2488570000000000    0.2561900000000000 Cs
   0.7499750000000001    0.7491050000000000    0.7472080000000000 Cs
   0.0009535000000001    0.9994095000000001    0.0012690000000001 Rb
   0.5011265000000000    0.4995105000000000    0.5009780000000000 V
