Cs2 In1 Au1 Cl6
1.0
   0.0000000000000000    5.3250120000000001    5.3250120000000001
   5.3250120000000001    0.0000000000000000    5.3250120000000001
   5.3250120000000001    5.3250120000000001    0.0000000000000000
Cs In Au Cl
2 1 1 6
direct
   0.7500000000000000    0.7500000000000000    0.7500000000000000 Cs
   0.2500000000000000    0.2500000000000000    0.2500000000000000 Cs
   0.0000000000000000    0.0000000000000000    0.0000000000000000 In
   0.5000000000000000    0.5000000000000000    0.5000000000000000 Au
   0.7572890000000000    0.2427110000000000    0.2427110000000000 Cl
   0.2427110000000000    0.2427110000000000    0.7572890000000000 Cl
   0.2427110000000000    0.7572890000000000    0.7572890000000000 Cl
   0.2427110000000000    0.7572890000000000    0.2427110000000000 Cl
   0.7572890000000000    0.2427110000000000    0.7572890000000000 Cl
   0.7572890000000000    0.7572890000000000    0.2427110000000000 Cl
