Cs2 Na1 In1 Cl6
1.0
   0.0000000000000000    0.0000000000000000   -7.4146651549999998
  -6.4307548523788647    0.0000000000000000   -3.7052939567085814
  -2.1382056172936519    6.0673244423572781   -3.7061808921386135
Cl Cs In Na
6 2 1 1
direct
   0.7579305000000001    0.2418184999999999    0.7600965000000000 Cl
   0.2409200000000000    0.7602350000000000    0.7576775000000001 Cl
   0.7605195000000000    0.2408494999999999    0.2408740000000000 Cl
   0.2430710000000000    0.7599389999999999    0.2389530000000000 Cl
   0.7604350000000001    0.7596729999999999    0.2395800000000000 Cl
   0.2422410000000000    0.2412040000000000    0.7587350000000000 Cl
   0.7508035000000000    0.7509775000000000    0.7483000000000000 Cs
   0.2503425000000001    0.2512064999999999    0.2491560000000000 Cs
   0.0009325000000001    0.0008274999999999    0.9989950000000001 In
   0.5009115000000000    0.5009334999999999    0.4988065000000001 Na
