Cs2 Pd1 Pt1 Cl6
1.0
   4.0795693411602088    5.7732033727562788   -0.0146495935735649
   2.0460426821567430   -5.7732033727562788   -3.5331879914539064
  -6.1256120233169522   -0.0000000000000000   -3.5340981499725288
Cl Cs Pd Pt
6 2 1 1
direct
   0.4880110000000002    0.7450540000000001    0.7464930000000001 Cl
   0.0030460000000001    0.2601395000000001    0.7483875000000000 Cl
   0.0029075000000001    0.7476335000000001    0.2628260000000000 Cl
   0.5196399999999999    0.2640364999999999    0.2654504999999999 Cl
   0.0023475000000001    0.7470115000000002    0.7486420000000000 Cl
   0.0049939999999999    0.2616175000000000    0.2628005000000000 Cl
   0.5034505000000000    0.7552980000000000    0.2553115000000000 Cs
   0.5039720000000000    0.2536765000000000    0.7572845000000001 Cs
   0.0035689999999999    0.0039040000000000    0.0058140000000000 Pd
   0.0036384999999999    0.5042599999999999    0.5058834999999999 Pt
