Cs2 Ag1 Sb1 Br6
1.0
   0.0000000000000000    5.6892529999999999    5.6892529999999999
   5.6892529999999999    0.0000000000000000    5.6892529999999999
   5.6892529999999999    5.6892529999999999    0.0000000000000000
Cs Ag Sb Br
2 1 1 6
direct
   0.7500000000000000    0.7500000000000000    0.7500000000000000 Cs
   0.2500000000000000    0.2500000000000000    0.2500000000000000 Cs
   0.5000000000000000    0.5000000000000000    0.5000000000000000 Ag
   0.0000000000000000    0.0000000000000000    0.0000000000000000 Sb
   0.7515540000000001    0.2484460000000000    0.2484460000000000 Br
   0.2484460000000000    0.2484460000000000    0.7515540000000001 Br
   0.2484460000000000    0.7515540000000001    0.7515540000000001 Br
   0.2484460000000000    0.7515540000000001    0.2484460000000000 Br
   0.7515540000000001    0.2484460000000000    0.7515540000000001 Br
   0.7515540000000001    0.7515540000000001    0.2484460000000000 Br
