Cs2 Ru1 Au1 Cl6
1.0
  -6.2859833461090311    0.0000000000000000   -3.6149208085437516
   0.0000000000000000    0.0000000000000000    7.2625307950000000
   3.6651231613878874    6.6275785258671656   -0.9141783601046001
Au Cl Cs Ru
1 6 2 1
direct
   0.0003755000000000    0.0042860000000001    0.0002485000000000 Au
   0.9724060000000000    0.2465890000000000    0.6642990000000000 Cl
   0.4211624999999999    0.6955705000000000    0.6645019999999999 Cl
   0.5792504999999999    0.3100310000000001    0.3354875000000000 Cl
   0.0274030000000000    0.7587025000000001    0.3350795000000000 Cl
   0.9328430000000000    0.2324829999999999    0.1558850000000000 Cl
   0.0680769999999999    0.7766625000000000    0.8440494999999999 Cl
   0.5141520000000001    0.2614964999999999    0.7734545000000000 Cs
   0.4863400000000000    0.7461350000000000    0.2256580000000000 Cs
   0.0002355000000000    0.5027150000000000    0.4996695000000000 Ru
