Cs2 Li1 Sb1 Cl6
1.0
   2.1297807365045194   -6.0467567260728901    3.7012513917477721
   6.4122896860737395   -0.0000000000000000   -3.6999510867216538
  -2.1297807365045194    6.0467567260728901    3.7082617432522280
Cl Cs Li Sb
6 2 1 1
direct
   0.2445244999999999    0.7547984999999999    0.0009929999999998 Cl
   0.2447324999999998    0.2492464999999998    0.0027109999999996 Cl
   0.7525705000000000    0.7565015000000000    0.0046030000000000 Cl
   0.7520575000000000    0.2498180000000001    0.0045630000000000 Cl
   0.2458049999999999    0.2500219999999999    0.4975509999999997 Cl
   0.7505829999999998    0.7556000000000000    0.5091990000000000 Cl
   0.7488799999999998    0.2532099999999999    0.5038089999999998 Cs
   0.2489544999999997    0.7533635000000000    0.5036609999999997 Cs
   0.9994274999999999    0.0031145000000001    0.0034390000000002 Li
   0.4988165000000001    0.5028245000000000    0.0034419999999999 Sb
