Cs2 V1 Pt1 Cl6
1.0
   0.3198136123436588   -5.7027193621257073   -0.7065034411867694
   6.0820928199228836   -0.0000000000000000    2.8443006309791938
  -6.0820928199228836   -0.0000000000000000    5.1337450190208065
Cl Cs Pt V
6 2 1 1
direct
   0.2727130000000001    0.3419260000000005    0.6878695000000001 Cl
   0.2517655000000001    0.3055935000000004    0.1357165000000002 Cl
   0.7460540000000000    0.6873860000000003    0.8601685000000002 Cl
   0.7254635000000000    0.6520734999999999    0.3082754999999999 Cl
   0.7421075000000000    0.1657715000000001    0.8609620000000000 Cl
   0.2557145000000001    0.8266165000000005    0.1347465000000004 Cl
   0.2648390000000000    0.7862790000000002    0.5776270000000000 Cs
   0.7328985000000000    0.2069005000000003    0.4179385000000002 Cs
   0.9990059999999999    0.9963520000000000    0.9978480000000000 Pt
   0.4991985000000000    0.4962315000000000    0.9978435000000000 V
