Cs2 Tl1 Au1 Cl6
1.0
  -6.4933507293259893    0.0000000000000000    3.5462900035815661
   1.9358378226920452   -6.1996307979382959    3.5459986078230008
   0.0000000000000000    0.0000000000000000    7.7126842800000004
Au Cl Cs Tl
1 6 2 1
direct
   0.9970010000000000    0.9974015000000001    0.0014470000000000 Au
   0.2275039999999999    0.2281400000000000    0.9985639999999999 Cl
   0.7680680000000000    0.2273405000000001    0.0000849999999999 Cl
   0.2276545000000000    0.7690610000000000    0.0002510000000000 Cl
   0.7660205000000000    0.7657145000000001    0.0057810000000000 Cl
   0.7441409999999999    0.7444835000000001    0.5107699999999999 Cl
   0.2504295000000000    0.2506350000000001    0.4934310000000000 Cl
   0.7472405000000000    0.2480645000000001    0.5016279999999999 Cs
   0.2475974999999999    0.7473970000000000    0.5018330000000000 Cs
   0.4967380000000000    0.4971560000000000    0.0021000000000000 Tl
