Cs2 Mg1 Cd1 Cl6
1.0
  -2.0988285662933737    5.9411667820007974   -3.6338865388727069
   0.0000000000000000    0.0000000000000000   -7.2742552700000003
  -6.3048792813301811    0.0000000000000000   -3.6330587194075039
Cd Cl Cs Mg
1 6 2 1
direct
   0.9976375000000001    0.9968360000000001    0.0052559999999999 Cd
   0.7422040000000001    0.7418305000000001    0.2582205000000001 Cl
   0.7426105000000001    0.2537914999999999    0.7466715000000000 Cl
   0.2550115000000000    0.7414300000000000    0.2580420000000000 Cl
   0.2539500000000000    0.2540619999999999    0.7460510000000000 Cl
   0.2535865000000000    0.7429829999999999    0.7459580000000000 Cl
   0.7420705000000001    0.2542404999999999    0.2584405000000001 Cl
   0.7478745000000000    0.7478864999999999    0.7521445000000000 Cs
   0.2479325000000000    0.2478370000000001    0.2520680000000000 Cs
   0.4978995000000001    0.4974080000000000    0.5036929999999999 Mg
