Cs4 Tl2 Hg2 Cl12
1.0
   6.7463243394485506   -0.0000000000000000   -3.8892306426010421
  -2.4738184530473379    6.3033527692487006   -3.9203406710188804
   4.2725058864012126    6.3033527692487006    7.5285616063800767
Cs Tl Hg Cl
4 2 2 12
direct
   0.9963960000000001    0.5062920000000001    0.2418440000000000 Cs
   0.4982410000000000    0.9970690000000000    0.7582770000000000 Cs
   0.4964540000000001    0.0051380000000000    0.2418430000000000 Cs
   0.9992170000000000    0.4945000000000001    0.7572730000000000 Cs
   0.4968650000000000    0.5003840000000001    0.9986379999999999 Tl
   0.9977140000000001    0.0015640000000000    0.5003310000000000 Tl
   0.9965610000000000    0.9998230000000001    0.9998839999999999 Hg
   0.4976700000000001    0.5024360000000000    0.4992040000000000 Hg
   0.7602430000000001    0.7729050000000000    0.0278450000000000 Cl
   0.2432400000000000    0.2353260000000000    0.5458989999999999 Cl
   0.2279460000000000    0.7589620000000000    0.0024379999999999 Cl
   0.7622590000000000    0.2425170000000000    0.5068650000000000 Cl
   0.7649390000000000    0.2402570000000001    0.9965200000000000 Cl
   0.2334500000000000    0.7606530000000000    0.4964760000000000 Cl
   0.2346980000000001    0.2256600000000000    0.9745070000000000 Cl
   0.7551280000000000    0.7659180000000000    0.4530810000000000 Cl
   0.0376680000000001    0.0496010000000000    0.2614779999999999 Cl
   0.5280780000000000    0.5366400000000000    0.7195879999999999 Cl
   0.4698360000000000    0.4696349999999999    0.2787000000000000 Cl
   0.9582980000000001    0.9508040000000001    0.7390170000000000 Cl
