Cs2 Hg1 Pt1 Cl6
1.0
   0.0000000000000000    0.0000000000000000   -7.5228666200000003
  -2.1771313017354901    6.1695308200060657    3.7513853213944168
   6.5423716870795463    0.0000000000000000    3.7534461376391364
Cl Cs Hg Pt
6 2 1 1
direct
   0.4404700000000000    0.7182485000000000    0.7182194999999999 Cl
   0.0014734999999999    0.7184969999999998    0.2798734999999999 Cl
   0.0014864999999999    0.2798345000000000    0.7182700000000000 Cl
   0.5626959999999999    0.2806880000000000    0.2805839999999999 Cl
   0.0032189999999999    0.2797610000000000    0.2795569999999999 Cl
   0.0012150000000000    0.7194084999999999    0.7193665000000000 Cl
   0.5029850000000000    0.7505110000000000    0.2498690000000000 Cs
   0.5030240000000000    0.2501025000000000    0.7503114999999999 Cs
   0.0020125000000000    0.9995329999999999    0.9994484999999997 Hg
   0.0016899999999998    0.4993204999999999    0.4992324999999999 Pt
