Cs2 Co1 Hg1 Cl6
1.0
   0.0000000000000000    0.0000000000000000   -7.3516669250000000
   6.4110103318103233    0.0000000000000000    3.5980663780835460
  -4.2176682228377018   -6.0206325037110302    0.1413195262580444
Cl Co Cs Hg
6 1 2 1
direct
   0.7731894999999999    0.9980869999999999    0.2217825000000000 Cl
   0.2207090000000000    0.4446449999999998    0.2222349999999998 Cl
   0.7723380000000000    0.5505285000000000    0.7739855000000000 Cl
   0.2200715000000000    0.9972365000000000    0.7740330000000000 Cl
   0.7313040000000000    0.9991725000000000    0.7323195000000000 Cl
   0.2645970000000000    0.9984004999999999    0.2655514999999999 Cl
   0.9954569999999999    0.9972700000000001    0.9964530000000000 Co
   0.7459965000000000    0.4970450000000001    0.2479035000000001 Cs
   0.2458385000000000    0.4971380000000000    0.7483465000000000 Cs
   0.4964005000000001    0.9965444999999999    0.4979469999999999 Hg
