Cs2 Bi1 Pd1 Cl6
1.0
   1.9827994243479585   -6.1102964801434538    3.5606205509581605
  -6.4233665959541018   -0.0000000000000000    3.5641798003707081
  -0.0000000000000000   -0.0000000000000000   -7.5633222949999999
Bi Cl Cs Pd
1 6 2 1
direct
   0.9990175000000000    0.0009399999999999    0.9973940000000000 Bi
   0.2607769999999999    0.2608530000000001    0.9940970000000000 Cl
   0.2615400000000000    0.7386870000000000    0.9996070000000001 Cl
   0.7372885000000000    0.2632654999999998    0.9950159999999998 Cl
   0.7371734999999999    0.7423540000000000    0.0018700000000000 Cl
   0.7509009999999999    0.7516530000000000    0.5053350000000000 Cl
   0.2445294999999998    0.2499879999999999    0.4893270000000001 Cl
   0.2480400000000000    0.7524930000000000    0.4977070000000000 Cs
   0.7485809999999999    0.2511935000000000    0.4978470000000000 Cs
   0.4992120000000000    0.5009850000000000    0.9973500000000001 Pd
