Cs2 K1 Rh1 Cl6
1.0
  -6.5066298940313398    0.0000000000000000   -3.7521273598940672
  -2.1686262977795008    6.1374577723409462   -3.7504356936497638
   0.0000000000000000    0.0000000000000000   -7.5132779149999998
Cl Cs K Rh
6 2 1 1
direct
   0.2788775000000000    0.7204950000000000    0.7216114999999999 Cl
   0.7198200000000000    0.7242305000000001    0.2786409999999999 Cl
   0.2835780000000000    0.2763055000000000    0.7202920000000000 Cl
   0.7245365000000001    0.2798180000000000    0.2780044999999999 Cl
   0.7241870000000001    0.2813240000000000    0.7196609999999999 Cl
   0.2798600000000000    0.7193315000000001    0.2799940000000001 Cl
   0.7513175000000000    0.7501560000000002    0.7494485000000000 Cs
   0.2513455000000000    0.2503855000000000    0.2493295000000001 Cs
   0.0017875000000001    0.0005540000000000    0.9998475000000000 K
   0.5019385000000000    0.5001875000000001    0.4998365000000000 Rh
