Cs2 Cd1 Pd1 Cl6
1.0
  -6.3014750766904228    0.0000000000000000    3.3496631977596660
   1.7948350958107244   -6.0422275961479643    3.3590852310836516
   4.5066399808796982    6.0422275961479643    0.9174807861566823
Cd Cl Cs Pd
1 6 2 1
direct
   0.0033320000000000    0.0036650000000000    0.0035820000000000 Cd
   0.2393865000000001    0.3130554999999998    0.0020020000000000 Cl
   0.6932634999999999    0.2400370000000001    0.0014929999999999 Cl
   0.3126559999999999    0.7667594999999999    0.0024499999999999 Cl
   0.7671935000000000    0.6936754999999999    0.0024100000000000 Cl
   0.2153144999999999    0.2156170000000000    0.4297550000000000 Cl
   0.7904065000000001    0.7904229999999999    0.5768330000000000 Cl
   0.2517499999999999    0.7510455000000000    0.5009640000000000 Cs
   0.7503330000000000    0.2513555000000000    0.5007819999999999 Cs
   0.5031690000000001    0.5035134999999999    0.0018470000000000 Pd
