Cs2 Ca1 Sn1 Cl6
1.0
  -6.6680686130631086    0.0000000000000000    3.7974268865305154
   2.1524547529468685   -6.3160072427217013    3.7925154833125805
   0.0000000000000000    0.0000000000000000    7.7446662049999997
Ca Cl Cs Sn
1 6 2 1
direct
   0.0001130000000000    0.9999650000000000    0.0003530000000001 Ca
   0.2039914999999999    0.2874849999999999    0.9993480000000000 Cl
   0.7089325000000000    0.1996335000000000    0.0064960000000001 Cl
   0.2915224999999999    0.8007810000000000    0.9942700000000000 Cl
   0.7936560000000000    0.7105790000000000    0.0049540000000001 Cl
   0.7605015000000001    0.7520935000000000    0.4920380000000000 Cl
   0.2403630000000000    0.2474214999999998    0.5094470000000001 Cl
   0.7515970000000001    0.2507305000000000    0.5006780000000001 Cs
   0.2492530000000001    0.7497070000000000    0.5012479999999999 Cs
   0.5000370000000000    0.4999940000000000    0.0005930000000001 Sn
