Cs2 Tb1 Cu1 Cl6
1.0
   0.0000000000000000    5.2792760000000003    5.2792760000000003
   5.2792760000000003    0.0000000000000000    5.2792760000000003
   5.2792760000000003    5.2792760000000003    0.0000000000000000
Cs Tb Cu Cl
2 1 1 6
direct
   0.7500000000000000    0.7500000000000000    0.7500000000000000 Cs
   0.2500000000000000    0.2500000000000000    0.2500000000000000 Cs
   0.0000000000000000    0.0000000000000000    0.0000000000000000 Tb
   0.5000000000000000    0.5000000000000000    0.5000000000000000 Cu
   0.7474380000000000    0.2525620000000000    0.2525620000000000 Cl
   0.2525620000000000    0.2525620000000000    0.7474380000000000 Cl
   0.2525620000000000    0.7474380000000000    0.7474380000000000 Cl
   0.2525620000000000    0.7474380000000000    0.2525620000000000 Cl
   0.7474380000000000    0.2525620000000000    0.7474380000000000 Cl
   0.7474380000000000    0.7474380000000000    0.2525620000000000 Cl
