Cs2 Rb1 Mo1 Cl6
1.0
   2.1050139386726050   -6.2448172409936848   -3.7570975031658032
  -0.0000000000000000   -0.0000000000000000   -7.6322085949999998
   6.9693952656967895   -0.0000000000000000   -3.7352757967032209
Cl Cs Mo Rb
6 2 1 1
direct
   0.2148105000000001    0.8450445000000000    0.7252795000000001 Cl
   0.2618095000000000    0.7525984999999999    0.1799740000000000 Cl
   0.7318285000000000    0.2514245000000000    0.8258619999999999 Cl
   0.7794240000000000    0.1590880000000000    0.2797300000000000 Cl
   0.8081325000000000    0.7482495000000000    0.1816050000000000 Cl
   0.1867520000000000    0.2539240000000000    0.8249695000000000 Cl
   0.2544810000000000    0.2460270000000000    0.2430035000000000 Cs
   0.7390340000000000    0.7582900000000001    0.7622835000000001 Cs
   0.9968975000000000    0.0016514999999999    0.0029590000000000 Mo
   0.4966310000000000    0.5017010000000000    0.5028855000000001 Rb
