Cs2 Na1 Ho1 Cl6
1.0
   0.0000000000000000    5.4281269999999999    5.4281269999999999
   5.4281269999999999    0.0000000000000000    5.4281269999999999
   5.4281269999999999    5.4281269999999999    0.0000000000000000
Cs Na Ho Cl
2 1 1 6
direct
   0.7500000000000000    0.7500000000000000    0.7500000000000000 Cs
   0.2500000000000000    0.2500000000000000    0.2500000000000000 Cs
   0.5000000000000000    0.5000000000000000    0.5000000000000000 Na
   0.0000000000000000    0.0000000000000000    0.0000000000000000 Ho
   0.2422920000000000    0.2422920000000000    0.7577080000000000 Cl
   0.2422920000000000    0.7577080000000000    0.7577080000000000 Cl
   0.7577080000000000    0.2422920000000000    0.2422920000000000 Cl
   0.2422920000000000    0.7577080000000000    0.2422920000000000 Cl
   0.7577080000000000    0.2422920000000000    0.7577080000000000 Cl
   0.7577080000000000    0.7577080000000000    0.2422920000000000 Cl
