Cs2 Ga1 Ag1 Cl6
1.0
   4.1707182763719910    5.9058705640444895   -0.0012017614457189
  -0.0000000000000000   -0.0000000000000000    7.2310924900000000
   2.0959175981235805   -5.9058705640444895   -3.6146741441546935
Ag Cl Cs Ga
1 6 2 1
direct
   0.0047945000000000    0.9967174999999999    0.0003510000000000 Ag
   0.7364504999999999    0.2652840000000000    0.0005904999999999 Cl
   0.2689435000000000    0.2660450000000000    0.5338985000000001 Cl
   0.7352635000000001    0.7325230000000000    0.4668895000000000 Cl
   0.2688359999999999    0.7325249999999999    0.0002829999999999 Cl
   0.2683645000000000    0.2656514999999999    0.0002930000000000 Cl
   0.7360534999999999    0.7329785000000000    0.0004830000000000 Cl
   0.2524875000000000    0.7488709999999998    0.5004124999999999 Cs
   0.7524685000000000    0.2488354999999998    0.5003550000000000 Cs
   0.5030960000000000    0.4984290000000000    0.0004000000000000 Ga
