Cs2 Li1 Nd1 Cl6
1.0
   0.0000000000000000    5.3902320000000001    5.3902320000000001
   5.3902320000000001    0.0000000000000000    5.3902320000000001
   5.3902320000000001    5.3902320000000001    0.0000000000000000
Cs Li Nd Cl
2 1 1 6
direct
   0.7500000000000000    0.7500000000000000    0.7500000000000000 Cs
   0.2500000000000000    0.2500000000000000    0.2500000000000000 Cs
   0.5000000000000000    0.5000000000000000    0.5000000000000000 Li
   0.0000000000000000    0.0000000000000000    0.0000000000000000 Nd
   0.7458180000000000    0.2541820000000000    0.2541820000000000 Cl
   0.2541820000000000    0.2541820000000000    0.7458180000000000 Cl
   0.2541820000000000    0.7458180000000000    0.7458180000000000 Cl
   0.2541820000000000    0.7458180000000000    0.2541820000000000 Cl
   0.7458180000000000    0.2541820000000000    0.7458180000000000 Cl
   0.7458180000000000    0.7458180000000000    0.2541820000000000 Cl
