Cs2 Sc1 Tl1 Cl6
1.0
   0.0000000000000000    5.6029020000000003    5.6029020000000003
   5.6029020000000003    0.0000000000000000    5.6029020000000003
   5.6029020000000003    5.6029020000000003    0.0000000000000000
Cs Sc Tl Cl
2 1 1 6
direct
   0.7500000000000000    0.7500000000000000    0.7500000000000000 Cs
   0.2500000000000000    0.2500000000000000    0.2500000000000000 Cs
   0.0000000000000000    0.0000000000000000    0.0000000000000000 Sc
   0.5000000000000000    0.5000000000000000    0.5000000000000000 Tl
   0.7763750000000000    0.2236250000000000    0.2236250000000000 Cl
   0.2236250000000000    0.2236250000000000    0.7763750000000000 Cl
   0.2236250000000000    0.7763750000000000    0.7763750000000000 Cl
   0.2236250000000000    0.7763750000000000    0.2236250000000000 Cl
   0.7763750000000000    0.2236250000000000    0.7763750000000000 Cl
   0.7763750000000000    0.7763750000000000    0.2236250000000000 Cl
