Cs4 Sc2 Cu2 Cl12
1.0
   6.4452886062226620   -0.0000000000000000   -3.0744866209429755
   2.7514808630222345   -5.9902199934863454    2.7744389794324316
  -3.6938077432004275   -5.9902199934863454   -8.4561328996245919
Cs Sc Cu Cl
4 2 2 12
direct
   0.0116450000000000    0.4838570000000000    0.7483830000000000 Cs
   0.4946220000000000    0.0034460000000001    0.2487179999999999 Cs
   0.4855950000000002    0.0166200000000001    0.7518130000000000 Cs
   0.0029590000000000    0.4953620000000001    0.2514889999999999 Cs
   0.5061199999999999    0.5065190000000001    0.0000509999999999 Sc
   0.9914450000000000    0.9910030000000001    0.4988730000000000 Sc
   0.9493960000000000    0.9425720000000000    0.9402930000000000 Cu
   0.5492930000000001    0.5495290000000002    0.5552450000000000 Cu
   0.7858410000000000    0.2379690000000000    0.9951600000000000 Cl
   0.2558549999999999    0.7077410000000001    0.4994890000000000 Cl
   0.2810060000000000    0.2909430000000001    0.9998890000000000 Cl
   0.7573719999999999    0.7622990000000001    0.5073980000000000 Cl
   0.7397620000000001    0.7360640000000001    0.9933630000000000 Cl
   0.2125990000000001    0.2105030000000001    0.5003690000000000 Cl
   0.2436029999999999    0.7921580000000003    0.0002299999999998 Cl
   0.7091280000000000    0.2572390000000000    0.5006919999999999 Cl
   0.9880700000000000    0.9845870000000000    0.7293480000000000 Cl
   0.5083139999999999    0.5043180000000000    0.2202379999999999 Cl
   0.5102030000000001    0.5153660000000000    0.7693830000000000 Cl
   0.9901020000000000    0.9917680000000001    0.2789379999999999 Cl
