Cs2 K1 Mo1 Cl6
1.0
  -2.2324906658754644    6.2267666789403009   -3.7989497251072879
  -4.4226178481598417   -6.2267666789403009   -0.0053805909966496
   0.0000000000000000    0.0000000000000000    7.6405156150000000
Cl Cs K Mo
6 2 1 1
direct
   0.0003045000000000    0.2997884999999999    0.2497364999999999 Cl
   0.4489365000000000    0.7194010000000000    0.7286240000000000 Cl
   0.5470264999999997    0.2837689999999997    0.2641629999999998 Cl
   0.9951475000000000    0.7038530000000000    0.7421989999999999 Cl
   0.0113095000000001    0.7558505000000001    0.2994935000000002 Cl
   0.9846929999999999    0.2476895000000000    0.6924944999999999 Cl
   0.4969664999999999    0.7500224999999999    0.2461794999999998 Cs
   0.4980405000000000    0.2520800000000000    0.7464870000000001 Cs
   0.9974404999999998    0.0016935000000000    0.9957254999999998 K
   0.9979300000000001    0.5018430000000000    0.4961389999999999 Mo
