Cs4 Fe2 Au2 Cl12
1.0
  -0.6908738445923127    5.4265664824549669   -4.3910013993926871
  -8.0433446160778406    0.0000000000000000    5.4305323755327786
   7.3524707714855282    5.4265664824549669    5.9017958050745332
Cs Fe Au Cl
4 2 2 12
direct
   0.5018330000000001    0.0237950000000000    0.1884600000000000 Cs
   0.9833419999999999    0.4873510000000000    0.7995470000000000 Cs
   0.9979130000000000    0.4818789999999999    0.3103970000000000 Cs
   0.5157780000000001    0.0148400000000000    0.6994139999999999 Cs
   0.5145390000000000    0.5123660000000001    0.0606650000000001 Fe
   0.9897420000000000    0.9920829999999999    0.4387610000000000 Fe
   0.0079950000000000    0.0585230000000000    0.9501010000000000 Au
   0.4889660000000000    0.4448960000000000    0.5494670000000000 Au
   0.3172559999999999    0.6141799999999999    0.5960850000000000 Cl
   0.8303070000000001    0.2246129999999999    0.9949069999999999 Cl
   0.8123880000000000    0.6660699999999999    0.0892660000000000 Cl
   0.0306370000000000    0.1218350000000000    0.2981990000000000 Cl
   0.4721050000000001    0.3859520000000000    0.2037430000000000 Cl
   0.6914700000000000    0.8386859999999998    0.4091020000000000 Cl
   0.1804220000000001    0.8897259999999999    0.9038020000000000 Cl
   0.6663150000000000    0.2786249999999999    0.5042530000000000 Cl
   0.2089300000000000    0.8651810000000000    0.4098220000000000 Cl
   0.4559920000000002    0.3725979999999999    0.8630259999999998 Cl
   0.2955380000000000    0.6397889999999999    0.0885500000000000 Cl
   0.0449960000000001    0.1296069999999999    0.6371970000000000 Cl
