Cs2 Na1 V1 Cl6
1.0
   2.0874960005977217   -5.9328977423934477    3.6235973152100498
  -6.2899876089381586   -0.0000000000000000    3.6227801189292523
  -0.0000000000000000   -0.0000000000000000   -7.2590815449999999
Cl Cs Na V
6 2 1 1
direct
   0.2660815000000001    0.2656700000000000    0.9980649999999999 Cl
   0.2666375000000001    0.7322070000000001    0.9992030000000000 Cl
   0.7327090000000001    0.2663135000000000    0.9992480000000001 Cl
   0.7332125000000000    0.7328955000000000    0.0003160000000000 Cl
   0.7331270000000000    0.7327235000000000    0.4659970000000000 Cl
   0.2661884999999999    0.2659110000000000    0.5323590000000000 Cl
   0.2498545000000000    0.7492305000000000    0.4992230000000000 Cs
   0.7494885000000000    0.2494950000000000    0.4992259999999998 Cs
   0.9995630000000000    0.9991350000000000    0.9989180000000000 Na
   0.4995940000000001    0.4991765000000000    0.9990129999999999 V
