Cs2 Co1 Ag1 Cl6
1.0
   3.9499115529899624    5.8559708214366184    0.0191694590106941
  -0.0000000000000000   -0.0000000000000000   -7.0723313599999997
  -6.2895532109466750   -0.0000000000000000    3.5291908303499837
Ag Cl Co Cs
1 6 1 2
direct
   0.0001915000000000    0.9976034999999999    0.9952574999999999 Ag
   0.7459395000000000    0.7449664999999999    0.9994324999999999 Cl
   0.7208105000000000    0.7174915000000001    0.4373580000000000 Cl
   0.2782985000000000    0.2781835000000001    0.5567409999999999 Cl
   0.2554360000000000    0.2540839999999999    0.9984625000000000 Cl
   0.2515709999999999    0.7467690000000001    0.9965289999999999 Cl
   0.7480580000000001    0.2484230000000003    0.9988374999999998 Cl
   0.5020594999999999    0.4983934999999999    0.9961675000000001 Co
   0.7493265000000000    0.2485115000000001    0.4992749999999999 Cs
   0.2500365000000000    0.7487664999999999    0.4984135000000000 Cs
