Cs2 K1 Ir1 Cl6
1.0
   6.5021557149969871   -0.0000000000000000   -3.7408682258183812
   2.1682306531043487   -6.1353416456525673   -3.7365088131557411
  -0.0000000000000000   -0.0000000000000000   -7.5135262349999996
Cl Cs Ir K
6 2 1 1
direct
   0.7782519999999999    0.2253054999999999    0.7781094999999999 Cl
   0.2164150000000000    0.2253265000000000    0.7883855000000000 Cl
   0.7801020000000003    0.7767345000000000    0.2130275000000000 Cl
   0.2180295000000000    0.7776255000000000    0.2229565000000001 Cl
   0.2241025000000000    0.7860199999999999    0.7733719999999999 Cl
   0.7723040000000001    0.2163460000000001    0.2280659999999999 Cl
   0.2480910000000000    0.2510340000000001    0.2504900000000001 Cs
   0.7481555000000000    0.7510669999999999    0.7504190000000001 Cs
   0.9980230000000002    0.0012945000000000    0.0006775000000001 Ir
   0.4976090000000000    0.5009945000000000    0.5007675000000000 K
