Cs2 Ba1 Cu1 Cl6
1.0
  -6.4858923859089632    0.0000000000000000    3.3494420127564624
   1.7299944590220542   -6.2485126624050906    3.3551250564176240
   0.0000000000000000    0.0000000000000000    7.9141715399999999
Ba Cl Cs Cu
1 6 2 1
direct
   0.9982835000000000    0.9969995000000000    0.0024700000000000 Ba
   0.2218750000000000    0.3490245000000002    0.0021250000000001 Cl
   0.6451945000000001    0.2193745000000001    0.0045580000000000 Cl
   0.3523940000000000    0.7758725000000000    0.9985500000000002 Cl
   0.7746530000000000    0.6453329999999999    0.0027140000000000 Cl
   0.7499600000000000    0.7449495000000000    0.5020220000000000 Cl
   0.2492170000000000    0.2499970000000001    0.5034330000000000 Cl
   0.7488620000000000    0.2472665000000002    0.5018550000000001 Cs
   0.2491590000000000    0.7480680000000000    0.5020000000000000 Cs
   0.4987820000000001    0.4976810000000000    0.0013840000000000 Cu
