Cs2 Rb1 Al1 Cl6
1.0
  -2.1912328446666742    6.2117706342636820   -3.7780528331799745
   0.0000000000000000    0.0000000000000000   -7.6266706749999997
  -6.6392030968734526    0.0000000000000000   -3.7796527300305414
Al Cl Cs Rb
1 6 2 1
direct
   0.9988619999999999    0.0004849999999999    0.9987040000000000 Al
   0.7700560000000000    0.7996170000000000    0.2242010000000000 Cl
   0.7948014999999999    0.2022355000000000    0.7731855000000001 Cl
   0.2030980000000001    0.7979910000000001    0.2244379999999999 Cl
   0.2276215000000000    0.2014159999999998    0.7735150000000000 Cl
   0.2133190000000001    0.7605835000000001    0.8088444999999999 Cl
   0.7845434999999999    0.2404510000000001    0.1885970000000001 Cl
   0.7481334999999999    0.7514700000000002    0.7481730000000000 Cs
   0.2490530000000000    0.2501249999999999    0.2473460000000000 Cs
   0.4988525000000000    0.5005519999999999    0.4985910000000000 Rb
