Cs2 Cd1 Hg1 Cl6
1.0
   4.2761753130867675    6.1194200664247589   -0.1549576410273428
  -6.5102579918624883   -0.0000000000000000   -3.6571035619444747
  -0.0000000000000000   -0.0000000000000000    7.4685160350000004
Cd Cl Cs Hg
1 6 2 1
direct
   0.9977135000000000    0.0010905000000000    0.9972179999999999 Cd
   0.7578425000000001    0.0023375000000000    0.2414459999999999 Cl
   0.7572365000000001    0.5197820000000002    0.7601925000000000 Cl
   0.2380790000000000    0.4830780000000000    0.2416789999999999 Cl
   0.2414795000000000    0.0030765000000000    0.7602779999999999 Cl
   0.2565725000000000    0.0019440000000000    0.2616564999999998 Cl
   0.7365005000000000    0.0010574999999999    0.7393429999999999 Cl
   0.7484595000000002    0.5026855000000002    0.2509640000000001 Cs
   0.2484775000000000    0.5029524999999999    0.7511799999999998 Cs
   0.4985660000000000    0.0011475000000001    0.4975875000000000 Hg
