Cs2 Ca1 Cd1 Cl6
1.0
   0.0000000000000000    0.0000000000000000   -7.5131742050000003
  -2.1693115354555874    6.1371220028930127    3.7551214567298672
   6.5119864007634281    0.0000000000000000    3.7558291611967851
Ca Cd Cl Cs
1 1 6 2
direct
   0.0016619999999999    0.9986444999999998    0.0007355000000000 Ca
   0.0022435000000001    0.4991225000000000    0.5011130000000000 Cd
   0.4947315000000002    0.7424995000000001    0.7435980000000001 Cl
   0.9976010000000000    0.7431480000000000    0.2530790000000000 Cl
   0.0059404999999999    0.2544180000000000    0.7502075000000000 Cl
   0.5091500000000001    0.2506650000000000    0.2594190000000000 Cl
   0.9968944999999999    0.2481450000000000    0.2535775000000000 Cl
   0.0072544999999999    0.7465444999999999    0.7510880000000001 Cl
   0.5031025000000000    0.7478609999999999    0.2529225000000000 Cs
   0.5032655000000001    0.2479755000000000    0.7528609999999999 Cs
