Cs4 Rh2 Au2 Cl12
1.0
  -3.0702572174712173   -5.6130572569523416   -5.2325288643654382
   6.6734435054761310    0.0000000000000000   -5.0945236439867134
   3.6031862880049137   -5.6130572569523416    5.1002283116478493
Cs Rh Au Cl
4 2 2 12
direct
   0.7503600000000000    0.0145250000000000    0.5141740000000000 Cs
   0.2505250000000000    0.4795840000000000    0.9790780000000000 Cs
   0.7507330000000001    0.5172630000000001    0.0161179999999999 Cs
   0.2504160000000001    0.9822860000000001    0.4815339999999999 Cs
   0.0004330000000000    0.4984650000000000    0.4977480000000000 Rh
   0.5002820000000000    0.9983640000000000    0.9981080000000000 Rh
   0.0002360000000001    0.9981460000000000    0.9978979999999998 Au
   0.5004320000000000    0.4982499999999999    0.4974270000000000 Au
   0.0714530000000000    0.6637090000000001    0.2995039999999999 Cl
   0.5713550000000001    0.1966230000000001    0.8325619999999999 Cl
   0.9776030000000000    0.2869850000000000    0.3073150000000000 Cl
   0.5230600000000001    0.8079610000000002    0.7865909999999999 Cl
   0.0235910000000000    0.7101150000000001    0.6878000000000000 Cl
   0.4774910000000000    0.1885760000000000    0.2097069999999999 Cl
   0.9293840000000000    0.3329310000000000    0.6959800000000000 Cl
   0.4293320000000000    0.8000080000000001    0.1633109999999999 Cl
   0.7730410000000000    0.9268630000000000    0.0994730000000000 Cl
   0.2732040000000000    0.3974950000000000    0.5698100000000000 Cl
   0.7277229999999999    0.5995700000000000    0.4259240000000000 Cl
   0.2274530000000000    0.0701720000000000    0.8969860000000000 Cl
