Cs2 Rb1 Au1 Cl6
1.0
   5.3759187305489151   -0.0000000000000000   -3.0832372900449569
  -0.0236707335611703   -6.4033076521424555    1.3924927687046422
  -5.3759187305489151   -0.0000000000000000   -6.8036426549550431
Au Cl Cs Rb
1 6 2 1
direct
   0.0018900000000000    0.9987870000000000    0.0000010000000000 Au
   0.6855825000000000    0.0475930000000000    0.8455239999999999 Cl
   0.0177775000000000    0.3252805000000000    0.1471660000000000 Cl
   0.9850540000000000    0.6722800000000000    0.8529119999999999 Cl
   0.3187045000000001    0.9496835000000000    0.1539160000000001 Cl
   0.7192670000000001    0.7180460000000000    0.3557400000000001 Cl
   0.2804385000000000    0.2805530000000002    0.6448380000000000 Cl
   0.7447429999999999    0.2450745000000001    0.4808420000000000 Cs
   0.2545455000000000    0.7534265000000000    0.5192519999999999 Cs
   0.5021169999999999    0.4985500000000000    0.0002200000000000 Rb
