Cs2 V1 Ag1 Cl6
1.0
   6.2723931905583372   -0.0000000000000000    3.6206562551757862
   2.0908311477352663   -5.9188651111037478    3.6168833564203360
   6.2723931905583372   -0.0000000000000000   -3.6252423948242138
Ag Cl Cs V
1 6 2 1
direct
   0.0075470000000001    0.9962015000000000    0.9956739999999999 Ag
   0.0018470000000000    0.2651540000000000    0.7326825000000000 Cl
   0.0025109999999999    0.2647004999999999    0.2644130000000001 Cl
   0.0012039999999999    0.7331915000000000    0.7328990000000001 Cl
   0.0018260000000000    0.7329885000000000    0.2648545000000000 Cl
   0.5331270000000000    0.7336279999999999    0.7333890000000000 Cl
   0.4726730000000000    0.2630134999999999    0.2624710000000001 Cl
   0.5016320000000002    0.2493544999999999    0.7487419999999998 Cs
   0.5016339999999999    0.7490150000000000    0.2491305000000001 Cs
   0.0036100000000001    0.4980684999999999    0.4976735000000000 V
