Cs4 Sc2 Au2 Cl12
1.0
   0.6725666098513975   -5.9215410307678713    4.1346401783671372
   6.2417140148820547   -0.0000000000000000   -4.1218800028423930
   5.5691474050306571    5.9215410307678713    8.3528344087904678
Cs Sc Au Cl
4 2 2 12
direct
   0.4775190000000001    0.9788359999999999    0.2450070000000000 Cs
   0.0359370000000000    0.5142769999999999    0.7527070000000001 Cs
   0.9642570000000000    0.4863569999999999    0.2481080000000000 Cs
   0.5222120000000000    0.0215159999999998    0.7554780000000000 Cs
   0.5000400000000000    0.5001170000000000    0.0003880000000000 Sc
   0.0002460000000000    0.0007399999999999    0.5003470000000001 Sc
   0.0000450000000000    0.0000830000000000    0.0002760000000000 Au
   0.5001900000000001    0.5008639999999999    0.5003600000000001 Au
   0.2831549999999999    0.7072899999999999    0.0034160000000000 Cl
   0.8545680000000001    0.2603079999999999    0.5185130000000001 Cl
   0.2343620000000002    0.2373779999999998    0.9319300000000003 Cl
   0.6509630000000000    0.8040170000000000    0.4972380000000001 Cl
   0.7657990000000000    0.7628230000000000    0.0687630000000000 Cl
   0.3495680000000001    0.1976749999999999    0.5033840000000002 Cl
   0.7165890000000000    0.2925509999999999    0.9971890000000001 Cl
   0.1464040000000000    0.7415320000000000    0.4822650000000001 Cl
   0.0017520000000001    0.0279639999999999    0.2914010000000001 Cl
   0.5652890000000000    0.5626439999999999    0.7954190000000001 Cl
   0.4356000000000000    0.4386690000000000    0.2055580000000000 Cl
   0.9986150000000000    0.9729729999999999    0.7092730000000002 Cl
