Cs4 Ba2 Pt2 Cl12
1.0
  -5.9684086721875431    0.0000000000000000    2.7580541826194480
   1.0093179049734100   -6.1023035505273162    2.3686222856481360
   4.9590907672141329    6.1023035505273162   14.2746383217324162
Cs Ba Pt Cl
4 2 2 12
direct
   0.9728110000000000    0.5604709999999999    0.2497140000000000 Cs
   0.5406460000000000    0.9715670000000001    0.7452360000000000 Cs
   0.4543290000000000    0.0262320000000001    0.2552150000000000 Cs
   0.0249819999999998    0.4379620000000000    0.7495609999999999 Cs
   0.9981779999999999    0.0015780000000000    0.0000309999999999 Ba
   0.4998909999999999    0.4991470000000000    0.4997090000000000 Ba
   0.4984389999999999    0.5006600000000000    0.9994480000000000 Pt
   0.9999739999999999    0.9994580000000000    0.4998680000000000 Pt
   0.2106509999999998    0.4159950000000000    0.9395140000000000 Cl
   0.7590229999999999    0.8608480000000001    0.4248729999999999 Cl
   0.6701639999999998    0.2603579999999999    0.9197540000000000 Cl
   0.0631769999999999    0.6958769999999999    0.5618980000000000 Cl
   0.3266789999999998    0.7409070000000000    0.0793990000000000 Cl
   0.9367699999999999    0.3030840000000000    0.4377980000000000 Cl
   0.7868970000000000    0.5850600000000001    0.0590180000000000 Cl
   0.2406640000000000    0.1381390000000001    0.5749520000000000 Cl
   0.9629780000000000    0.0697260000000000    0.1851440000000000 Cl
   0.5444539999999999    0.4794349999999999    0.6832259999999999 Cl
   0.4544409999999999    0.5188670000000000    0.3161840000000000 Cl
   0.0308710000000000    0.9285460000000001    0.8153589999999999 Cl
