Cs2 V1 Sn1 Cl6
1.0
   2.1559256232285340   -6.0957321764109276   -3.7261117638695342
  -0.0000000000000000   -0.0000000000000000    7.4651664999999996
  -6.4680142865098240   -0.0000000000000000   -3.7296493946781442
Cl Cs Sn V
6 2 1 1
direct
   0.2627225000000000    0.5275504999999998    0.2624730000000000 Cl
   0.2630770000000000    0.0000280000000000    0.7337570000000000 Cl
   0.7359815000000000    0.9998525000000000    0.2621730000000000 Cl
   0.7347450000000000    0.4716235000000000    0.7342985000000000 Cl
   0.7347740000000000    0.9998265000000000    0.7343065000000000 Cl
   0.2624275000000000    0.9998935000000002    0.2615820000000000 Cl
   0.2481700000000000    0.5001089999999999    0.7480280000000000 Cs
   0.7481854999999999    0.5000670000000000    0.2479854999999999 Cs
   0.9988165000000000    0.9995170000000000    0.9970445000000000 Sn
   0.4987680000000000    0.9993019999999999    0.4965290000000000 V
