Cs2 Ca1 Fe1 Cl6
1.0
   6.3322846952839473   -0.0000000000000000    3.6744081213990762
  -6.3322846952839473   -0.0000000000000000    3.6796721336009242
   2.0955250922861461   -6.0050827662892772   -3.6697802600457305
Ca Cl Cs Fe
1 6 2 1
direct
   0.9986025000000001    0.9989159999999999    0.0028705000000000 Ca
   0.2602250000000002    0.5192960000000001    0.2615210000000001 Cl
   0.2593195000000000    0.9962430000000001    0.2641515000000001 Cl
   0.7385260000000000    0.0018425000000000    0.7411820000000000 Cl
   0.7373385000000001    0.4794760000000000    0.7431235000000000 Cl
   0.2600830000000001    0.9970085000000001    0.7427039999999999 Cl
   0.7380234999999999    0.0014974999999997    0.2633755000000000 Cl
   0.7481865000000001    0.4998365000000001    0.2531965000000002 Cs
   0.2483200000000001    0.4975280000000000    0.7508669999999998 Cs
   0.4987864999999999    0.9990170000000000    0.5027185000000001 Fe
