Cs2 Sr1 Fe1 Cl6
1.0
  -4.3313991417455924   -6.1120908309807600   -0.0091140924577955
   2.1727952555084449   -6.1120908309807600   -3.7560612915898282
   2.1727952555084449   -6.1120908309807600    3.7697661134101721
Cl Cs Fe Sr
6 2 1 1
direct
   0.2345130000000001    0.7672789999999999    0.2331050000000001 Cl
   0.7673705000000001    0.2324055000000000    0.2319355000000001 Cl
   0.2342755000000000    0.7658274999999999    0.7678305000000001 Cl
   0.7682715000000000    0.2292835000000000    0.7679724999999999 Cl
   0.7694615000000000    0.7647575000000000    0.2350295000000000 Cl
   0.2333750000000000    0.2332949999999998    0.7646055000000000 Cl
   0.7502620000000001    0.7490990000000000    0.7510920000000001 Cs
   0.2500765000000000    0.2488334999999998    0.2488070000000001 Cs
   0.0033019999999999    0.9982220000000001    0.0007325000000001 Fe
   0.5017690000000001    0.4987419999999999    0.5003704999999999 Sr
