Cs4 Ba2 Ca2 Cl12
1.0
  -6.8433223179997702    0.0000000000000000    3.8466188567223196
  -2.2988679253556050    6.5478721635482495   -4.0880312681503339
  -4.5444543926441652   -6.5478721635482495   -7.9317468751273452
Cs Ba Ca Cl
4 2 2 12
direct
   0.9834090000000001    0.4520349999999999    0.7486809999999999 Cs
   0.4827480000000001    0.0532339999999999    0.2483590000000000 Cs
   0.5121449999999999    0.9523499999999999    0.7496129999999999 Cs
   0.0103899999999999    0.5526080000000000    0.2496350000000001 Cs
   0.9962569999999999    0.0014240000000000    0.9989380000000000 Ba
   0.4966140000000001    0.5031649999999999    0.4993580000000000 Ba
   0.4956289999999999    0.5017039999999999    0.9994330000000000 Ca
   0.9970420000000001    0.0026199999999999    0.4995660000000000 Ca
   0.3034580000000001    0.7790329999999999    0.0412719999999999 Cl
   0.7181500000000001    0.1986170000000000    0.5367780000000000 Cl
   0.7747170000000000    0.6966000000000001    0.9622780000000000 Cl
   0.1892010000000000    0.2801069999999999    0.4589560000000000 Cl
   0.2167700000000000    0.3063259999999999    0.0366579999999999 Cl
   0.8038749999999999    0.7260480000000000    0.5415130000000000 Cl
   0.6891990000000000    0.2251850000000000    0.9589930000000000 Cl
   0.2756710000000001    0.8082800000000000    0.4619050000000000 Cl
   0.0731960000000000    0.0203420000000000    0.7347380000000000 Cl
   0.5688450000000002    0.4845939999999999    0.2350729999999999 Cl
   0.4240729999999999    0.5209350000000000    0.7640190000000000 Cl
   0.9230060000000000    0.9849700000000000    0.2637780000000000 Cl
