Cs2 Ca1 Pt1 Cl6
1.0
  -5.7694733489354961    0.0000000000000000    0.7826107774892783
  -0.3846960984258540    6.3487519641781889   -2.9975206153696656
   0.3846960984258540   -6.3487519641781889   -5.3069584196303339
Ca Cl Cs Pt
1 6 2 1
direct
   0.9993255000000000    0.9997485000000000    0.9992800000000001 Ca
   0.2630784999999999    0.6523499999999999    0.8484179999999999 Cl
   0.7326664999999999    0.8029525000000000    0.1499410000000000 Cl
   0.2645860000000000    0.1958170000000000    0.8468809999999999 Cl
   0.7333900000000000    0.3459675000000001    0.1482630000000000 Cl
   0.7816204999999999    0.8303769999999999    0.6625799999999999 Cl
   0.2159150000000000    0.1684899999999999    0.3359610000000000 Cl
   0.7593854999999999    0.2905334999999999    0.5833390000000001 Cs
   0.2366570000000000    0.7070595000000002    0.4140360000000001 Cs
   0.4984459999999999    0.4993710000000001    0.9983710000000000 Pt
