Cs4 Al2 Hg2 Cl12
1.0
   2.5257031049443199   -6.0419388699935297    3.1594043865624593
   8.2271385817934490   -0.0000000000000000   -3.9967910750174518
   5.7014354768491291    6.0419388699935297    7.0587260684200892
Cs Al Hg Cl
4 2 2 12
direct
   0.5209209999999997    0.9423530000000000    0.2884620000000000 Cs
   0.0044210000000000    0.3981250000000001    0.6232640000000000 Cs
   0.0301950000000000    0.5212280000000000    0.0660940000000000 Cs
   0.4574439999999999    0.9549550000000001    0.7885849999999999 Cs
   0.9847479999999998    0.0357590000000002    0.9953979999999998 Al
   0.4807140000000000    0.4521710000000002    0.3873289999999999 Al
   0.5976059999999999    0.4423660000000001    0.8774129999999998 Hg
   0.0117589999999998    0.8597200000000002    0.6059759999999998 Hg
   0.2182449999999999    0.8629770000000000    0.0636170000000000 Cl
   0.7302899999999999    0.5451320000000001    0.3301870000000000 Cl
   0.1851979999999999    0.2165200000000002    0.9297869999999999 Cl
   0.7218689999999999    0.7628940000000001    0.5851280000000000 Cl
   0.7713460000000000    0.8636950000000000    0.0395270000000000 Cl
   0.4008389999999999    0.3270190000000001    0.2538020000000001 Cl
   0.8594759999999999    0.1644290000000000    0.1310140000000000 Cl
   0.1946359999999999    0.6601160000000000    0.7646259999999999 Cl
   0.1776799999999999    0.0550810000000001    0.5026919999999999 Cl
   0.5260650000000000    0.3105640000000001    0.5678330000000000 Cl
   0.2592510000000000    0.6279290000000000    0.3967530000000000 Cl
   0.9007469999999999    0.0627600000000000    0.7924820000000000 Cl
