Cs2 Sr1 Pt1 Cl6
1.0
   0.3624157980017571   -5.6623432060016547    0.7556350619060068
  -6.5190131758631189   -0.0000000000000000    2.9557058367237596
  -0.0000000000000000   -0.0000000000000000   -8.6276064600000009
Cl Cs Pt Sr
6 2 1 1
direct
   0.2150795000000000    0.3082120000000000    0.1612899999999998 Cl
   0.2193754999999999    0.8596330000000000    0.1602880000000000 Cl
   0.7796120000000000    0.1453839999999998    0.8395290000000000 Cl
   0.7836235000000000    0.6970780000000000    0.8381879999999999 Cl
   0.7142390000000000    0.6755450000000001    0.3447350000000000 Cl
   0.2844015000000000    0.3280900000000001    0.6499969999999999 Cl
   0.2598050000000001    0.7963220000000000    0.5870719999999999 Cs
   0.7390645000000000    0.2085525000000000    0.4102770000000000 Cs
   0.9994395000000000    0.0025699999999999    0.9999190000000000 Pt
   0.4972645000000000    0.5016160000000001    0.9979940000000000 Sr
