Cs2 As1 Au1 Cl6
1.0
  -2.9202686974960028    6.0126962513462816   -2.7367102984971354
  -3.9155303643311909   -6.0126962513462816   -1.7526974763795433
   0.0000000000000000    0.0000000000000000    7.3998856300000000
As Au Cl Cs
1 1 6 2
direct
   0.9974429999999996    0.0003075000000000    0.9981824999999999 As
   0.9979545000000000    0.5004565000000000    0.4980574999999998 Au
   0.8494394999999999    0.1974759999999999    0.1965989999999999 Cl
   0.5792784999999997    0.7409654999999999    0.7372974999999997 Cl
   0.4164390000000002    0.2603434999999999    0.2584655000000000 Cl
   0.1458749999999998    0.8028109999999998    0.7998869999999998 Cl
   0.9969994999999999    0.7852604999999999    0.2120584999999999 Cl
   0.9959469999999999    0.2149680000000000    0.7848059999999999 Cl
   0.4979445000000001    0.7523325000000000    0.2461825000000000 Cs
   0.4960869999999998    0.2485339999999999    0.7496039999999999 Cs
