Cs2 Mg1 Pb1 Cl6
1.0
  -2.1761708907280202    6.1510123330071789    3.7606053058392401
   0.0000000000000000    0.0000000000000000   -7.5332064949999999
  -4.3509936301907048   -6.1510123330071789    0.0028196908248663
Cl Cs Mg Pb
6 2 1 1
direct
   0.9960969999999999    0.7659674999999999    0.2324945000000000 Cl
   0.5273105000000000    0.7654000000000001    0.7627865000000000 Cl
   0.4640295000000000    0.2334685000000001    0.2301330000000000 Cl
   0.9945780000000000    0.2318359999999999    0.7614700000000000 Cl
   0.9950865000000000    0.7630315000000000    0.7645790000000000 Cl
   0.9962175000000000    0.2341740000000000    0.2306015000000000 Cl
   0.4970275000000000    0.2495499999999999    0.7481065000000000 Cs
   0.4970930000000001    0.7495680000000000    0.2480980000000002 Cs
   0.9961329999999999    0.9991875000000000    0.9974285000000001 Mg
   0.9961409999999999    0.4992055000000001    0.4975015000000000 Pb
