Cs4 Rb2 B2 Cl12
1.0
  -5.6718317615502096    0.0000000000000000    3.6983215918293491
  -5.9277000218646441    7.1164127537112494   -2.9055578588751150
  -5.4159635012357752   -7.1164127537112494   -7.1142612974661859
Cs Rb B Cl
4 2 2 12
direct
   0.2471279999999999    0.7052610000000001    0.7568679999999999 Cs
   0.7127230000000001    0.7884430000000000    0.2571879999999999 Cs
   0.5383989999999998    0.1130450000000001    0.6962180000000000 Cs
   0.4032419999999999    0.3876440000000001    0.1982490000000000 Cs
   0.9494389999999999    0.2980580000000000    0.9257219999999999 Rb
   0.0025949999999999    0.1926560000000001    0.4235549999999999 Rb
   0.2070010000000000    0.9048050000000001    0.0993350000000000 B
   0.8552900000000001    0.5886490000000001    0.5986639999999999 B
   0.3829090000000002    0.7234530000000001    0.0428309999999998 Cl
   0.5446230000000001    0.1241490000000001    0.4013450000000000 Cl
   0.9497590000000000    0.9594270000000000    0.0306889999999999 Cl
   0.1227160000000000    0.4554720000000000    0.5635389999999998 Cl
   0.3350420000000000    0.0423500000000002    0.0685140000000000 Cl
   0.8426860000000000    0.7735010000000001    0.5467899999999999 Cl
   0.4199550000000001    0.3715450000000000    0.9030619999999999 Cl
   0.6548229999999999    0.5328110000000001    0.5290049999999999 Cl
   0.0584340000000000    0.0757890000000000    0.6970360000000000 Cl
   0.8890339999999998    0.4189570000000002    0.1974010000000000 Cl
   0.7987420000000001    0.6004380000000001    0.7612129999999999 Cl
   0.1640660000000000    0.8861760000000001    0.2617119999999998 Cl
