Cs2 Er1 Ag1 Cl6
1.0
   0.0000000000000000    5.4096229999999998    5.4096229999999998
   5.4096229999999998    0.0000000000000000    5.4096229999999998
   5.4096229999999998    5.4096229999999998    0.0000000000000000
Cs Er Ag Cl
2 1 1 6
direct
   0.7500000000000000    0.7500000000000000    0.7500000000000000 Cs
   0.2500000000000000    0.2500000000000000    0.2500000000000000 Cs
   0.0000000000000000    0.0000000000000000    0.0000000000000000 Er
   0.5000000000000000    0.5000000000000000    0.5000000000000000 Ag
   0.7575260000000000    0.2424740000000000    0.2424740000000000 Cl
   0.2424740000000000    0.2424740000000000    0.7575260000000000 Cl
   0.2424740000000000    0.7575260000000000    0.7575260000000000 Cl
   0.2424740000000000    0.7575260000000000    0.2424740000000000 Cl
   0.7575260000000000    0.2424740000000000    0.7575260000000000 Cl
   0.7575260000000000    0.7575260000000000    0.2424740000000000 Cl
