Cs4 K2 Nb2 Cl12
1.0
   6.5794068075327026   -0.0000000000000000   -3.8222307884550908
   2.2291417464932270   -6.4003855788300124    3.7938301644458936
  -4.3502650610394760   -6.4003855788300124   -7.7935361270990153
Cs K Nb Cl
4 2 2 12
direct
   0.0023970000000000    0.5077510000000001    0.7577500000000000 Cs
   0.4954490000000000    0.0010750000000000    0.2413470000000001 Cs
   0.5059549999999999    0.9967199999999999    0.7561770000000001 Cs
   0.0002079999999999    0.4923480000000000    0.2401120000000000 Cs
   0.0000250000000000    0.0007850000000000    0.9990019999999999 K
   0.5016970000000001    0.4986950000000000    0.4990780000000000 K
   0.5004590000000000    0.5002320000000000    0.9988950000000000 Nb
   0.0013679999999999    0.9994260000000000    0.4990530000000000 Nb
   0.7186380000000000    0.2627429999999999    0.9768580000000000 Cl
   0.1914349999999999    0.7400210000000000    0.4761460000000000 Cl
   0.2584569999999999    0.2843610000000001    0.9964810000000001 Cl
   0.7350680000000001    0.8138500000000000    0.4971860000000000 Cl
   0.7423250000000001    0.7162459999999999    0.0023240000000001 Cl
   0.2687310000000001    0.1839990000000000    0.5006700000000001 Cl
   0.2807150000000002    0.7371359999999999    0.0195370000000001 Cl
   0.8130919999999999    0.2603920000000000    0.5206649999999999 Cl
   0.0157680000000000    0.9683729999999999    0.7290670000000000 Cl
   0.5148870000000001    0.4715230000000000    0.2264730000000000 Cl
   0.4871460000000000    0.5295019999999999    0.7710740000000000 Cl
   0.9873110000000002    0.0311929999999999    0.2689850000000000 Cl
