Cs2 Co1 Sn1 Cl6
1.0
   2.1352095827650470   -6.0374739664890829   -3.6960473413811079
   2.1352095827650470   -6.0374739664890829    3.7105622136188923
  -4.2818965813962233   -6.0374739664890829   -0.0054429324111025
Cl Co Cs Sn
6 1 2 1
direct
   0.7688219999999999    0.2314270000000000    0.2349090000000001 Cl
   0.2357179999999999    0.2319805000000001    0.7661270000000000 Cl
   0.7701130000000000    0.7620285000000001    0.2358010000000000 Cl
   0.2364845000000000    0.7634379999999999    0.7674445000000001 Cl
   0.7691785000000000    0.2310070000000000    0.7669655000000001 Cl
   0.2360644999999998    0.7633715000000001    0.2353905000000002 Cl
   0.0027435000000000    0.9975165000000001    0.0019645000000000 Co
   0.7532219999999999    0.7466739999999999    0.7516780000000001 Cs
   0.2536995000000000    0.2462595000000000    0.2511725000000001 Cs
   0.5028009999999998    0.4973255000000001    0.5017240000000001 Sn
