Cs2 Hg1 As1 Cl6
1.0
   6.4860878975401750   -0.0000000000000000    3.6989421263129305
  -2.1402669082651893    6.1282675731389276    3.7083383280642499
  -4.3458209892749853   -6.1282675731389276    0.1466157456228192
As Cl Cs Hg
1 6 2 1
direct
   0.0002015000000000    0.0044490000000000    0.0012885000000000 As
   0.2297239999999999    0.2340099999999999    0.4646319999999998 Cl
   0.2368165000000000    0.7694600000000000    0.0020615000000000 Cl
   0.7645480000000000    0.2402195000000000    0.0009844999999999 Cl
   0.7703620000000000    0.7741975000000000    0.5379625000000000 Cl
   0.2367835000000000    0.2403605000000000    0.0008400000000000 Cl
   0.7634175000000000    0.7684299999999999    0.0017275000000000 Cl
   0.7497435000000000    0.2551160000000000    0.5014535000000000 Cs
   0.2508790000000000    0.7538459999999999    0.5013789999999999 Cs
   0.5001720000000002    0.5045550000000001    0.0012480000000001 Hg
