Cs4 Fe2 Ge2 Cl12
1.0
  -6.6426714757365817    0.0000000000000000    4.1987203892804716
  -2.6278048741961375    6.1046356009317684   -4.2018820645106505
  -4.0148666015404437   -6.1046356009317684   -6.3789383662088763
Cs Fe Ge Cl
4 2 2 12
direct
   0.0091830000000001    0.4947199999999999    0.7507079999999999 Cs
   0.5098700000000000    0.9937809999999999    0.2509599999999998 Cs
   0.5093209999999999    0.9929910000000000    0.7506579999999999 Cs
   0.0083819999999998    0.4934350000000000    0.2507880000000000 Cs
   0.0037540000000001    0.9269589999999999    0.0027169999999997 Fe
   0.5737770000000000    0.4973139999999999    0.5027839999999999 Fe
   0.5012200000000000    0.4742209999999999    0.0014349999999999 Ge
   0.0274600000000000    0.0003810000000000    0.5012749999999999 Ge
   0.2460890000000001    0.7643409999999998    0.0015049999999998 Cl
   0.7392930000000000    0.2574220000000000    0.5034749999999999 Cl
   0.7650680000000002    0.7559159999999998    0.0013549999999999 Cl
   0.2365180000000000    0.2170930000000000    0.5003599999999999 Cl
   0.2844850000000000    0.2649950000000000    0.0000819999999999 Cl
   0.7452259999999999    0.7362099999999999    0.5008990000000000 Cl
   0.7249390000000000    0.2742670000000000    0.9996180000000000 Cl
   0.2285190000000001    0.7773920000000000    0.4993049999999999 Cl
   0.0015110000000000    0.0324510000000000    0.7817590000000000 Cl
   0.4687230000000001    0.4990309999999999    0.2817939999999999 Cl
   0.4666010000000000    0.5073590000000000    0.7223559999999999 Cl
   0.9943020000000000    0.0357480000000000    0.2220519999999999 Cl
