Cs2 K1 Ti1 Cl6
1.0
   2.2089610417929220   -6.2007777317847506    3.7859850265995378
  -4.4095099653645367   -6.2007777317847506   -0.0323360224895337
   2.2089610417929215   -6.2007777317847506   -3.8471600484004620
Cl Cs K Ti
6 2 1 1
direct
   0.2735059999999997    0.2790764999999999    0.7217725000000003 Cl
   0.2735679999999998    0.7307999999999999    0.2760350000000003 Cl
   0.7254125000000000    0.2702430000000000    0.7224100000000001 Cl
   0.7254655000000000    0.7226520000000000    0.2762830000000000 Cl
   0.2781784999999999    0.7208315000000000    0.7290385000000000 Cl
   0.7211955000000000    0.2804075000000001    0.2692995000000000 Cl
   0.7495529999999999    0.7508290000000000    0.7482070000000002 Cs
   0.2493569999999998    0.2514879999999999    0.2497270000000001 Cs
   0.9996729999999995    0.0009770000000001    0.9989360000000004 K
   0.4996754999999998    0.5007554999999998    0.4990855000000000 Ti
