Cs2 K1 Al1 Cl6
1.0
   0.0000000000000000    5.4034940000000002    5.4034940000000002
   5.4034940000000002    0.0000000000000000    5.4034940000000002
   5.4034940000000002    5.4034940000000002    0.0000000000000000
Cs K Al Cl
2 1 1 6
direct
   0.7500000000000000    0.7500000000000000    0.7500000000000000 Cs
   0.2500000000000000    0.2500000000000000    0.2500000000000000 Cs
   0.5000000000000000    0.5000000000000000    0.5000000000000000 K
   0.0000000000000000    0.0000000000000000    0.0000000000000000 Al
   0.7820600000000000    0.2179400000000000    0.2179400000000000 Cl
   0.2179400000000000    0.2179400000000000    0.7820600000000000 Cl
   0.2179400000000000    0.7820600000000000    0.7820600000000000 Cl
   0.2179400000000000    0.7820600000000000    0.2179400000000000 Cl
   0.7820600000000000    0.2179400000000000    0.7820600000000000 Cl
   0.7820600000000000    0.7820600000000000    0.2179400000000000 Cl
