Cs2 Hg1 Rh1 Cl6
1.0
   6.3139168360727362   -0.0000000000000000    3.5768799556007340
  -2.1046167313887825    5.9529262370359373    3.5770667697076184
  -4.2093001046839538   -5.9529262370359373    0.1690637596916478
Cl Cs Hg Rh
6 2 1 1
direct
   0.2763854999999998    0.2768654999999999    0.5458399999999999 Cl
   0.2685205000000002    0.7323010000000001    0.0003475000000002 Cl
   0.7320275000000001    0.2689094999999999    0.0003679999999999 Cl
   0.7244410000000000    0.7249450000000000    0.4560930000000000 Cl
   0.2659440000000000    0.2660850000000000    0.9999800000000000 Cl
   0.7347235000000001    0.7348904999999999    0.0005050000000000 Cl
   0.7514590000000001    0.2494884999999999    0.5004215000000002 Cs
   0.2491355000000001    0.7518710000000001    0.5004595000000001 Cs
   0.0009590000000003    0.0013895000000000    0.0016585000000002 Hg
   0.5006645000000001    0.5010500000000000    0.0010325000000001 Rh
