Cs2 Rb1 Al1 Br6
1.0
   0.0000000000000000    5.8180699999999996    5.8180699999999996
   5.8180699999999996    0.0000000000000000    5.8180699999999996
   5.8180699999999996    5.8180699999999996    0.0000000000000000
Cs Rb Al Br
2 1 1 6
direct
   0.7500000000000000    0.7500000000000000    0.7500000000000000 Cs
   0.2500000000000000    0.2500000000000000    0.2500000000000000 Cs
   0.5000000000000000    0.5000000000000000    0.5000000000000000 Rb
   0.0000000000000000    0.0000000000000000    0.0000000000000000 Al
   0.7824300000000000    0.2175700000000000    0.2175700000000000 Br
   0.2175700000000000    0.2175700000000000    0.7824300000000000 Br
   0.2175700000000000    0.7824300000000000    0.7824300000000000 Br
   0.2175700000000000    0.7824300000000000    0.2175700000000000 Br
   0.7824300000000000    0.2175700000000000    0.7824300000000000 Br
   0.7824300000000000    0.7824300000000000    0.2175700000000000 Br
