Cs2 Rb1 Pd1 Cl6
1.0
   6.5807336564170651   -0.0000000000000000    3.6049062464713737
  -1.9760346841476772    6.2825088099128088    3.6056442771437354
  -4.6046989722693876   -6.2825088099128088    0.6254696713848915
Cl Cs Pd Rb
6 2 1 1
direct
   0.2289425000000000    0.2283860000000002    0.4565265000000001 Cl
   0.1602285000000002    0.7348945000000000    0.0013620000000002 Cl
   0.8440020000000000    0.2690615000000002    0.0025085000000000 Cl
   0.7760570000000000    0.7764715000000000    0.5477425000000000 Cl
   0.2690665000000000    0.1595990000000000    0.0015855000000000 Cl
   0.7344220000000001    0.8428755000000001    0.0009395000000001 Cl
   0.7527750000000001    0.2529000000000001    0.5020400000000000 Cs
   0.2519610000000001    0.7521885000000000    0.5016875000000001 Cs
   0.0019685000000002    0.0018400000000002    0.0019665000000001 Pd
   0.5022335000000002    0.5020570000000002    0.0022275000000003 Rb
