Cs4 Tl2 In2 Cl12
1.0
   2.2584710751431945   -6.3647980533548765    3.8719616886280779
   6.7373725162947364   -0.0000000000000000   -3.9073323924748906
   4.4789014411515424    6.3647980533548765    7.8127683088970326
Cs Tl In Cl
4 2 2 12
direct
   0.5411300000000000    0.0079890000000000    0.2493580000000000 Cs
   0.9638969999999999    0.5047590000000000    0.7502250000000000 Cs
   0.0394980000000000    0.4911959999999999    0.2503340000000001 Cs
   0.4651609999999999    0.9899410000000000    0.7517220000000000 Cs
   0.5033310000000000    0.4971739999999999    0.0006590000000000 Tl
   0.0011999999999999    0.9998950000000000    0.5000190000000000 Tl
   0.0039269999999999    0.9965009999999999    0.0002530000000000 In
   0.5006069999999999    0.4997530000000000    0.5002550000000000 In
   0.1986580000000000    0.7387259999999998    0.9697590000000000 Cl
   0.7624959999999998    0.3100359999999999    0.4706449999999999 Cl
   0.2648609999999999    0.1879930000000000    0.0247460000000000 Cl
   0.6960949999999999    0.7569290000000000    0.5302690000000000 Cl
   0.7430490000000000    0.8047509999999999    0.9753530000000000 Cl
   0.3086420000000000    0.2398389999999999    0.4701610000000000 Cl
   0.8090229999999999    0.2539180000000000    0.0303890000000000 Cl
   0.2386560000000000    0.6891900000000000    0.5295590000000000 Cl
   0.0048970000000000    0.9438850000000000    0.2267590000000000 Cl
   0.5053680000000000    0.4435299999999999    0.7264150000000001 Cl
   0.4949290000000000    0.5564820000000000    0.2741270000000000 Cl
   0.0031150000000000    0.0489129999999999    0.7736300000000002 Cl
