Cs2 Mn1 Ge1 Cl6
1.0
  -2.1129554677335505    5.9794487801878420   -3.6607801112640055
  -6.3430285413871053    0.0000000000000000    3.6585464229668765
  -2.1129554677335505    5.9794487801878420    3.6631347637359943
Cl Cs Ge Mn
6 2 1 1
direct
   0.7450360000000000    0.2597890000000000    0.0001860000000000 Cl
   0.7444220000000000    0.7462020000000000    0.0004680000000000 Cl
   0.2574280000000000    0.2596570000000001    0.0006520000000000 Cl
   0.2580480000000001    0.7461555000000000    0.0007460000000000 Cl
   0.7439855000000000    0.7466299999999999    0.5143170000000000 Cl
   0.2583655000000000    0.2595184999999999    0.4873710000000000 Cl
   0.2517015000000001    0.7534535000000000    0.5005320000000000 Cs
   0.7517075000000002    0.2534205000000002    0.5007489999999998 Cs
   0.0007065000000000    0.0022330000000000    0.0012430000000000 Ge
   0.5003775000000001    0.5019875000000000    0.0013939999999999 Mn
