Cs2 Sb1 Au1 Cl6
1.0
   6.2626642632744529   -0.0000000000000000   -4.0725539339952137
   0.8126956247439870   -6.2212392472031048    4.0582785887781094
  -6.2626642632744529   -0.0000000000000000   -4.2139229110047856
Au Cl Cs Sb
1 6 2 1
direct
   0.0002469999999999    0.9966980000000000    0.9972130000000000 Au
   0.6671924999999999    0.2206125000000001    0.9952389999999999 Cl
   0.1487655000000001    0.2959345000000000    0.9979160000000000 Cl
   0.8517104999999999    0.6976530000000000    0.9967069999999999 Cl
   0.3325355000000000    0.7696485000000000    0.9962029999999999 Cl
   0.7232675000000000    0.7204825000000000    0.4445640000000000 Cl
   0.2769985000000000    0.2729290000000000    0.5506199999999999 Cl
   0.7522085000000001    0.2477159999999999    0.5009509999999999 Cs
   0.2471739999999999    0.7446625000000000    0.4926289999999999 Cs
   0.5001870000000000    0.4960730000000000    0.9970549999999999 Sb
