Cs2 Tl1 Cr1 Cl6
1.0
   4.3661618604790267    6.1786603877541815   -0.0041288538376643
  -6.5567481095501572   -0.0000000000000000   -3.7789736423784883
  -0.0000000000000000   -0.0000000000000000    7.5684626599999998
Cl Cr Cs Tl
6 1 2 1
direct
   0.7837485000000000    0.9988310000000000    0.2186305000000002 Cl
   0.7827634999999999    0.5597335000000000    0.7778990000000001 Cl
   0.2222540000000000    0.4397420000000000    0.2183349999999999 Cl
   0.2217595000000000    0.0005855000000000    0.7769390000000000 Cl
   0.2251315000000000    0.9996535000000000    0.2166440000000000 Cl
   0.7815410000000000    0.9998090000000003    0.7797440000000002 Cl
   0.0038160000000000    0.9997255000000000    0.9984315000000000 Cr
   0.7519155000000000    0.4999140000000000    0.2461595000000001 Cs
   0.2518470000000000    0.4997770000000000    0.7460920000000000 Cs
   0.5033434999999999    0.9997860000000001    0.4978805000000002 Tl
