Cs2 Ca1 Cr1 Cl6
1.0
  -6.3440168579000300    0.0000000000000000    3.5177392678568413
  -1.9542099860950140    6.0341258805820512   -3.5264503430161533
   1.9542099860950140   -6.0341258805820512   -3.9540204419838463
Ca Cl Cr Cs
1 6 1 2
direct
   0.9974765000000000    0.0026200000000002    0.0024750000000000 Ca
   0.2638040000000000    0.7384145000000001    0.0020730000000000 Cl
   0.7328145000000000    0.7342920000000001    0.9998790000000000 Cl
   0.2617555000000000    0.2685620000000001    0.0024330000000001 Cl
   0.7317405000000001    0.2668070000000000    0.0024680000000000 Cl
   0.7520050000000000    0.7560520000000001    0.5103250000000001 Cl
   0.2422200000000000    0.2470130000000000    0.4940300000000000 Cl
   0.4966785000000000    0.5017480000000003    0.0013070000000002 Cr
   0.7467800000000000    0.2515330000000001    0.5012320000000001 Cs
   0.2472785000000000    0.7513585000000000    0.5012890000000001 Cs
