Cs2 Ba1 Mn1 Cl6
1.0
   2.1598786405355259   -6.3004441853520552    3.8385993250824550
   6.7265886664005716   -0.0000000000000000   -3.7863285766895829
  -2.1598786405355259    6.3004441853520552    3.9349413999175451
Ba Cl Cs Mn
1 6 2 1
direct
   0.0022204999999996    0.9959410000000000    0.9983660000000001 Ba
   0.3248759999999999    0.7724420000000001    0.0149250000000000 Cl
   0.2288974999999995    0.3095624999999997    0.9928910000000000 Cl
   0.7739030000000000    0.6839484999999998    0.0037030000000000 Cl
   0.6789809999999996    0.2184695000000001    0.9822880000000000 Cl
   0.2689169999999999    0.2812160000000000    0.5405440000000000 Cl
   0.7330714999999998    0.7105665000000002    0.4554370000000000 Cl
   0.7483144999999998    0.2498915000000000    0.4987310000000001 Cs
   0.2507414999999996    0.7417995000000001    0.4973520000000000 Cs
   0.5035049999999996    0.4957515000000002    0.9996810000000000 Mn
