Cs2 Hg1 Sb1 Cl6
1.0
   6.6798774882778833   -0.0000000000000000    3.8090992230978449
  -2.2139309066536579    6.2993589324231873    3.8139753513102241
  -4.4659465816242250   -6.2993589324231873    0.1534978855919311
Cl Cs Hg Sb
6 2 1 1
direct
   0.2655815000000006    0.2666945000000003    0.5256620000000003 Cl
   0.2591720000000002    0.7449840000000001    0.0003260000000000 Cl
   0.7434050000000003    0.2636300000000001    0.0027940000000002 Cl
   0.7345269999999999    0.7363795000000001    0.4759165000000000 Cl
   0.2569810000000000    0.2585875000000000    0.9986855000000000 Cl
   0.7438735000000003    0.7455370000000001    0.0027465000000001 Cl
   0.7499810000000002    0.2540035000000001    0.5011855000000001 Cs
   0.2493920000000002    0.7543505000000000    0.5010535000000000 Cs
   0.9999590000000004    0.0029115000000004    0.0009605000000004 Hg
   0.5001355000000004    0.5029040000000002    0.0009885000000003 Sb
