Cs4 Rb2 In2 Cl12
1.0
   2.2706427681760220   -6.3605893940000637    3.8785603576759233
   6.8623731942008055   -0.0000000000000000   -4.0077702169854952
   4.5917304260247835    6.3605893940000637    7.9225077153385826
Cs Rb In Cl
4 2 2 12
direct
   0.5108550000000001    0.0461260000000000    0.2521240000000000 Cs
   0.0109570000000001    0.4497770000000002    0.7529330000000000 Cs
   0.9855260000000000    0.5471449999999999    0.2491110000000000 Cs
   0.4865920000000000    0.9500210000000001    0.7495259999999999 Cs
   0.4989100000000000    0.4972380000000000    0.0007080000000000 Rb
   0.9980640000000001    0.9991830000000000    0.5005260000000000 Rb
   0.9988269999999999    0.9976429999999999    0.0008959999999999 In
   0.4974229999999999    0.4990179999999999    0.5009149999999999 In
   0.1795960000000001    0.7357700000000000    0.9682690000000000 Cl
   0.7588140000000000    0.3152200000000001    0.4654760000000001 Cl
   0.2615750000000001    0.1802430000000003    0.9692430000000000 Cl
   0.6785750000000002    0.7607810000000002    0.4684940000000000 Cl
   0.7363240000000000    0.8144829999999998    0.0324090000000000 Cl
   0.3172370000000000    0.2372090000000000    0.5356990000000000 Cl
   0.8167370000000000    0.2582420000000000    0.0354550000000000 Cl
   0.2345060000000000    0.6814480000000001    0.5353220000000000 Cl
   0.0609600000000000    0.9894700000000000    0.2231410000000000 Cl
   0.5623109999999999    0.5098850000000001    0.7227600000000000 Cl
   0.4348470000000001    0.4903419999999999    0.2788820000000000 Cl
   0.9377580000000001    0.0086550000000001    0.7786220000000000 Cl
