Cs2 V1 Cd1 Cl6
1.0
   6.2946381696713383   -0.0000000000000000    3.6309210616563914
  -0.0000000000000000   -0.0000000000000000    7.2675062549999998
   2.1045357573091410   -5.9404203218628595    3.6220853199638898
Cd Cl Cs V
1 6 2 1
direct
   0.9982519999999999    0.9957960000000001    0.0073070000000000 Cd
   0.7428840000000000    0.2517569999999999    0.2617840000000000 Cl
   0.2547120000000000    0.7387619999999999    0.2625230000000001 Cl
   0.7438275000000001    0.2512104999999998    0.7491800000000000 Cl
   0.2544935000000000    0.7393824999999999    0.7509085000000000 Cl
   0.2555060000000000    0.2507400000000000    0.7492650000000000 Cl
   0.7424500000000002    0.7399870000000000    0.2621340000000000 Cl
   0.2487795000000000    0.2450265000000001    0.2553685000000000 Cs
   0.7490900000000000    0.7449349999999999    0.7558270000000000 Cs
   0.4986975000000000    0.4954854999999999    0.5065500000000001 V
