Cs2 Ba1 Ni1 Cl6
1.0
  -2.1765155966359702    6.2059762098435964   -3.7870763367148959
   6.5849833699611890    0.0000000000000000   -3.7809644245537144
  -4.4084677733252189   -6.2059762098435964   -0.0673834837313896
Ba Cl Cs Ni
1 6 2 1
direct
   0.0037724999999997    0.9997704999999998    0.0009889999999998 Ba
   0.7409344999999997    0.7177924999999996    0.0123419999999996 Cl
   0.7088030000000000    0.2607230000000000    0.9857420000000000 Cl
   0.2977949999999999    0.7375729999999998    0.0163719999999999 Cl
   0.2667994999999999    0.2800839999999999    0.9880909999999999 Cl
   0.7295664999999998    0.7108114999999999    0.4501179999999999 Cl
   0.2798944999999998    0.2896409999999998    0.5516449999999999 Cl
   0.2541794999999999    0.7485409999999999    0.4989389999999999 Cs
   0.7529799999999999    0.2486099999999999    0.4995009999999999 Cs
   0.5042009999999997    0.5006569999999997    0.0024489999999997 Ni
