Cs2 Ti1 V1 Cl6
1.0
  -4.1401050990241943   -5.8596715947741371    0.0031594805159294
   6.2166746888281521    0.0000000000000000    3.5870113638109764
  -2.0765695898039578    5.8596715947741371    3.5893336706730943
Cl Cs Ti V
6 2 1 1
direct
   0.5058700000000000    0.2535250000000001    0.2509120000000001 Cl
   0.0031065000000001    0.2531460000000001    0.7449045000000001 Cl
   0.9986850000000002    0.7459730000000001    0.2482740000000002 Cl
   0.4954875000000000    0.7464320000000000    0.7441405000000000 Cl
   0.0005115000000001    0.2530925000000001    0.2491520000000000 Cl
   0.0000955000000000    0.7471325000000000    0.7453420000000001 Cl
   0.5014235000000000    0.7513525000000000    0.2466070000000000 Cs
   0.5006485000000001    0.2486135000000001    0.7473410000000000 Cs
   0.0009944999999998    0.0003390000000000    0.9976625000000000 Ti
   0.0007355000000000    0.5007975000000000    0.4982830000000000 V
