Cs2 Mn1 V1 Cl6
1.0
   4.1256183815339424    5.8455114774843189    0.0012333232357209
  -0.0000000000000000   -0.0000000000000000   -7.1587712699999999
  -6.2040008413791723   -0.0000000000000000    3.5780810799761498
Cl Cs Mn V
6 2 1 1
direct
   0.7465379999999999    0.7488469999999999    0.0002669999999999 Cl
   0.7464074999999998    0.7497214999999999    0.4986204999999999 Cl
   0.2482105000000000    0.2511705000000000    0.5022844999999999 Cl
   0.2473505000000000    0.2504284999999998    0.0003960000000000 Cl
   0.2484585000000000    0.7486215000000001    0.0001845000000000 Cl
   0.7477499999999998    0.2501999999999998    0.0004514999999999 Cl
   0.7463289999999999    0.2501279999999999    0.5001954999999999 Cs
   0.2464589999999999    0.7502000000000000    0.5004055000000001 Cs
   0.9971809999999998    0.9985459999999998    0.0005644999999999 Mn
   0.4977834999999999    0.4983774999999999    0.0004059999999999 V
