Cs4 Cu2 Sb2 Cl12
1.0
  -1.1635415877978519    6.0115777280756246   -4.0876473644963971
   6.1435679308065971    0.0000000000000000   -4.0692232498201815
  -4.9800263430087455   -6.0115777280756246   -8.0758096556834218
Cs Cu Sb Cl
4 2 2 12
direct
   0.4950990000000001    0.0051450000000000    0.7496270000000000 Cs
   0.9953110000000002    0.5008090000000001    0.2508210000000001 Cs
   0.0063790000000001    0.4979449999999999    0.7489660000000000 Cs
   0.5059270000000002    0.0019410000000002    0.2475410000000002 Cs
   0.9568110000000000    0.9569920000000001    0.9509730000000000 Cu
   0.5461290000000001    0.5453600000000001    0.5456640000000001 Cu
   0.5064360000000001    0.5083760000000002    0.0029430000000003 Sb
   0.9954020000000001    0.9941500000000001    0.4951690000000001 Sb
   0.7591910000000002    0.7546050000000002    0.0004550000000002 Cl
   0.2196670000000001    0.2164390000000000    0.4944670000000001 Cl
   0.8011610000000002    0.2358070000000002    0.0160580000000002 Cl
   0.2623030000000000    0.6959620000000001    0.4889180000000001 Cl
   0.2407250000000002    0.8086140000000003    0.0088570000000001 Cl
   0.6995150000000001    0.2651040000000001    0.4826500000000001 Cl
   0.2805760000000002    0.2877630000000001    0.0043390000000001 Cl
   0.7425340000000001    0.7477470000000002    0.4963990000000001 Cl
   0.9948280000000000    0.0021230000000000    0.7484270000000001 Cl
   0.4952220000000002    0.5059700000000001    0.2259640000000002 Cl
   0.5060430000000000    0.5016890000000002    0.7490270000000001 Cl
   0.0064230000000001    0.9966910000000001    0.2723180000000001 Cl
