Cs2 K1 As1 Cl6
1.0
   0.0000000000000000    5.5460089999999997    5.5460089999999997
   5.5460089999999997    0.0000000000000000    5.5460089999999997
   5.5460089999999997    5.5460089999999997    0.0000000000000000
Cs K As Cl
2 1 1 6
direct
   0.7500000000000000    0.7500000000000000    0.7500000000000000 Cs
   0.2500000000000000    0.2500000000000000    0.2500000000000000 Cs
   0.5000000000000000    0.5000000000000000    0.5000000000000000 K
   0.0000000000000000    0.0000000000000000    0.0000000000000000 As
   0.7730490000000000    0.2269510000000000    0.2269510000000000 Cl
   0.2269510000000000    0.2269510000000000    0.7730490000000000 Cl
   0.2269510000000000    0.7730490000000000    0.7730490000000000 Cl
   0.2269510000000000    0.7730490000000000    0.2269510000000000 Cl
   0.7730490000000000    0.2269510000000000    0.7730490000000000 Cl
   0.7730490000000000    0.7730490000000000    0.2269510000000000 Cl
