Cs2 Sr1 Zn1 Cl6
1.0
  -6.4876464056890004    0.0000000000000000   -3.7347358875052916
   2.1604354347018218   -6.1171438803122289   -3.7347098504662237
   0.0000000000000000    0.0000000000000000    7.4895436300000000
Cl Cs Sr Zn
6 2 1 1
direct
   0.2655719999999999    0.2674740000000000    0.5344679999999999 Cl
   0.7322385000000000    0.2696285000000000    0.0010330000000001 Cl
   0.2658594999999999    0.7326410000000000    0.9990314999999999 Cl
   0.7317315000000000    0.7353090000000000    0.4654894999999998 Cl
   0.7292055000000000    0.7318050000000000    0.9965655000000000 Cl
   0.2689364999999997    0.2705645000000000    0.0037089999999999 Cl
   0.7486055000000000    0.2517594999999999    0.5001740000000001 Cs
   0.2483115000000000    0.7519804999999999    0.5001260000000001 Cs
   0.9991435000000000    0.0009615000000001    0.9999960000000001 Sr
   0.4995900000000000    0.5004270000000000    0.0000310000000000 Zn
