Cs4 Sn2 Pb2 Cl12
1.0
   2.2542147013065512   -6.3785362918110584    3.8520565078734958
   6.8411073333716050   -0.0000000000000000   -3.9827566416060338
   4.5868926320650534    6.3785362918110584    7.9126992105204703
Cs Sn Pb Cl
4 2 2 12
direct
   0.4938459999999999    0.0413270000000000    0.2496000000000000 Cs
   0.9928600000000000    0.4589290000000000    0.7523810000000000 Cs
   0.0141180000000000    0.5441750000000002    0.2518600000000000 Cs
   0.5146499999999999    0.9560050000000000    0.7504440000000000 Cs
   0.5031250000000000    0.4995519999999999    0.0013230000000000 Sn
   0.0044009999999999    0.0015790000000000    0.5006860000000000 Sn
   0.0032940000000000    0.0010770000000000    0.0007870000000001 Pb
   0.5038549999999998    0.4995050000000001    0.5009910000000000 Pb
   0.2906550000000000    0.7839400000000000    0.0309250000000001 Cl
   0.7179810000000001    0.2090190000000000    0.5305220000000000 Cl
   0.2178869999999999    0.2905239999999999    0.0305080000000000 Cl
   0.7914119999999999    0.7093680000000000    0.5307060000000000 Cl
   0.7891269999999999    0.7122410000000001    0.9744209999999999 Cl
   0.2076760000000000    0.2819660000000000    0.4714610000000000 Cl
   0.7103800000000000    0.2160970000000000    0.9698320000000000 Cl
   0.2926490000000000    0.7906520000000000    0.4701730000000000 Cl
   0.9501499999999999    0.9974440000000000    0.2528080000000000 Cl
   0.4498300000000000    0.5070750000000002    0.7527550000000000 Cl
   0.5592690000000000    0.4922710000000001    0.2478890000000000 Cl
   0.0600490000000000    0.0088540000000000    0.7479170000000002 Cl
