Cs4 Sr2 Ca2 Cl12
1.0
   2.2391193201627750   -6.3496715822839755    3.8807655297839263
   6.7291812848707249   -0.0000000000000000   -3.8883718048362961
   4.4900619647079498    6.3496715822839755    7.7978867653797774
Cs Sr Ca Cl
4 2 2 12
direct
   0.4720509999999999    0.0067490000000000    0.2510480000000000 Cs
   0.0270510000000000    0.5061550000000001    0.7503860000000000 Cs
   0.9722280000000000    0.4955190000000000    0.2514490000000000 Cs
   0.5269650000000000    0.9956760000000001    0.7514400000000000 Cs
   0.5002059999999999    0.5004460000000001    0.0016860000000000 Sr
   0.9995530000000000    0.0019510000000000    0.5015410000000000 Sr
   0.0003680000000000    0.0000070000000000    0.0014540000000000 Ca
   0.5000030000000000    0.5024649999999999    0.5015340000000000 Ca
   0.2748359999999999    0.7873200000000000    0.9753950000000000 Cl
   0.7142839999999999    0.2297180000000001    0.4752370000000001 Cl
   0.2122280000000000    0.2755100000000001    0.0257610000000000 Cl
   0.7742999999999999    0.7148860000000000    0.5258330000000000 Cl
   0.7874180000000001    0.7259249999999999    0.9752450000000000 Cl
   0.2263200000000000    0.2879580000000001    0.4752570000000000 Cl
   0.7245720000000000    0.2123310000000000    0.0256730000000000 Cl
   0.2858569999999999    0.7753760000000001    0.5256540000000000 Cl
   0.0059420000000000    0.9518930000000001    0.2451860000000000 Cl
   0.4958039999999999    0.4523090000000001    0.7450779999999999 Cl
   0.5067240000000000    0.5518070000000000    0.2580500000000001 Cl
   0.9965859999999999    0.0508240000000002    0.7580559999999998 Cl
