Cs2 Na1 Nb1 Cl6
1.0
  -6.3891821476998825    0.0000000000000000    3.6518303598310831
   2.0885137307623554   -6.0360815591650230    3.6574414383819489
   0.0000000000000000    0.0000000000000000    7.3944687350000002
Cl Cs Na Nb
6 2 1 1
direct
   0.2615465000000001    0.2588705000000000    0.0045469999999999 Cl
   0.7393595000000001    0.2609545000000000    0.0041009999999999 Cl
   0.2584850000000001    0.7361700000000000    0.0051270000000000 Cl
   0.7372565000000000    0.7388385000000000    0.0045100000000000 Cl
   0.7408235000000000    0.7414220000000000    0.5206549999999999 Cl
   0.2579015000000000    0.2563385000000001    0.4886559999999998 Cl
   0.7485985000000001    0.2482790000000001    0.5049679999999999 Cs
   0.2484325000000003    0.7480205000000000    0.5050439999999999 Cs
   0.9992850000000000    0.9989670000000000    0.0043140000000000 Na
   0.4992075000000000    0.4988660000000000    0.0048659999999999 Nb
