Cs2 Mn1 Cd1 Cl6
1.0
  -4.2095651248052999   -5.9588377468474185    0.0010201418907725
  -6.3191335364648706    0.0000000000000000    3.6499874406294071
  -6.3191335364648706    0.0000000000000000   -3.6515796543705932
Cd Cl Cs Mn
1 6 2 1
direct
   0.0020060000000001    0.0025744999999999    0.9945300000000000 Cd
   0.2564770000000002    0.2576494999999999    0.7423729999999999 Cl
   0.2569585000000002    0.7463530000000000    0.7414034999999999 Cl
   0.7461015000000000    0.2565715000000000    0.2531015000000000 Cl
   0.7458690000000001    0.7463704999999998    0.2526830000000000 Cl
   0.7450745000000000    0.2579705000000001    0.7420975000000000 Cl
   0.2564640000000001    0.7465239999999999    0.2525980000000001 Cl
   0.2514105000000001    0.2521394999999999    0.2476205000000000 Cs
   0.7513590000000000    0.7521639999999999    0.7475140000000000 Cs
   0.5010270000000000    0.5013529999999999    0.4974020000000000 Mn
