Cs2 Sr1 Mn1 Cl6
1.0
  -0.0000000000000000   -0.0000000000000000    7.5651385849999997
  -2.1858953958812921    6.1798434714726804    3.7813808089848813
  -6.5558314952279346   -0.0000000000000000    3.7803934912722230
Cl Cs Mn Sr
6 2 1 1
direct
   0.2335455000000000    0.7651535000000000    0.2337835000000000 Cl
   0.2362250000000000    0.7697210000000000    0.7598145000000001 Cl
   0.7628170000000001    0.2349720000000000    0.2357170000000001 Cl
   0.7655719999999999    0.2395950000000000    0.7611944999999999 Cl
   0.2350115000000000    0.2378985000000000    0.7669409999999999 Cl
   0.7655749999999999    0.7665190000000000    0.2294659999999999 Cl
   0.7496299999999998    0.7513300000000001    0.7486024999999999 Cs
   0.2496620000000002    0.2513100000000000    0.2485105000000001 Cs
   0.9999635000000001    0.0036724999999999    0.9963394999999999 Mn
   0.4996324999999999    0.5027665000000000    0.4972385000000000 Sr
