Cs2 Na1 Ta1 Cl6
1.0
   0.0000000000000000    5.3085399999999998    5.3085399999999998
   5.3085399999999998    0.0000000000000000    5.3085399999999998
   5.3085399999999998    5.3085399999999998    0.0000000000000000
Cs Na Ta Cl
2 1 1 6
direct
   0.7500000000000000    0.7500000000000000    0.7500000000000000 Cs
   0.2500000000000000    0.2500000000000000    0.2500000000000000 Cs
   0.5000000000000000    0.5000000000000000    0.5000000000000000 Na
   0.0000000000000000    0.0000000000000000    0.0000000000000000 Ta
   0.7654360000000000    0.2345640000000000    0.2345640000000000 Cl
   0.2345640000000000    0.2345640000000000    0.7654360000000000 Cl
   0.2345640000000000    0.7654360000000000    0.7654360000000000 Cl
   0.2345640000000000    0.7654360000000000    0.2345640000000000 Cl
   0.7654360000000000    0.2345640000000000    0.7654360000000000 Cl
   0.7654360000000000    0.7654360000000000    0.2345640000000000 Cl
