Cs4 Ba2 Be2 Cl12
1.0
  -3.1177701201208743    5.9928438589393593   -3.8136667958125869
   7.5097762586962400    0.0000000000000000   -5.6587121840138064
  -4.3920061385753657   -5.9928438589393593   -5.9029295501736065
Cs Ba Be Cl
4 2 2 12
direct
   0.5000100000000001    0.1066320000000000    0.7300970000000000 Cs
   0.0121660000000001    0.3914170000000000    0.2291820000000001 Cs
   0.0052650000000000    0.3949860000000000    0.7692240000000000 Cs
   0.4927290000000001    0.1089220000000001    0.2704750000000000 Cs
   0.9727280000000000    0.9310590000000000    0.9999640000000000 Ba
   0.5305770000000000    0.5708599999999999    0.4989990000000000 Ba
   0.4638150000000001    0.6335260000000000    0.0002630000000000 Be
   0.0383370000000001    0.8676920000000000    0.4998930000000000 Be
   0.5777320000000001    0.8297270000000001    0.0064360000000000 Cl
   0.2742110000000001    0.3308530000000000    0.5023800000000000 Cl
   0.7621330000000001    0.1926620000000000    0.0009110000000000 Cl
   0.3034390000000001    0.8456690000000000    0.5062710000000001 Cl
   0.1991240000000000    0.6573749999999999    0.9960490000000000 Cl
   0.7421140000000001    0.3094259999999999    0.4979930000000000 Cl
   0.2312970000000000    0.1695820000000000    0.9970030000000000 Cl
   0.9266210000000000    0.6707010000000000    0.4945200000000000 Cl
   0.9605380000000000    0.9734840000000000    0.6739840000000001 Cl
   0.5252820000000000    0.5204000000000000    0.1746740000000000 Cl
   0.5384690000000000    0.5277730000000000    0.8252609999999999 Cl
   0.9759190000000002    0.9794459999999999    0.3247480000000000 Cl
