Cs2 Li1 Y1 Cl6
1.0
  -6.3971819173539295    0.0000000000000000   -3.6833887765193456
   0.0000000000000000    0.0000000000000000    7.3820138350000004
   4.2631039850753876    6.0292931063534949   -0.0076162175991055
Cl Cs Li Y
6 2 1 1
direct
   0.0030074999999999    0.2477959999999997    0.7535255000000000 Cl
   0.5057345000000000    0.7499769999999999    0.7532635000000001 Cl
   0.4995999999999999    0.2472190000000000    0.2501710000000000 Cl
   0.0033355000000000    0.7503970000000000    0.2499835000000000 Cl
   0.0028250000000000    0.2470470000000000    0.2504740000000000 Cl
   0.0032770000000000    0.7514054999999999    0.7541455000000000 Cl
   0.5025364999999998    0.2491084999999998    0.7516679999999999 Cs
   0.5026075000000001    0.7492175000000001    0.2517260000000000 Cs
   0.0018675000000000    0.9994050000000002    0.0012335000000000 Li
   0.0026344999999998    0.4992610000000000    0.5018864999999999 Y
