Cs2 Ba1 Pd1 Cl6
1.0
   0.4884781223571013   -4.9954337960978439    2.7698276283985530
   6.5535644745444932   -0.0000000000000000   -2.0417666551449165
  -0.4884781223571013    4.9954337960978439    7.3112905416014469
Ba Cl Cs Pd
1 6 2 1
direct
   0.9987595000000000    0.9994680000000001    0.0000130000000000 Ba
   0.2078970000000001    0.5706875000000000    0.8364170000000000 Cl
   0.4393005000000000    0.1543875000000000    0.8617700000000000 Cl
   0.5649624999999999    0.8422520000000001    0.1425620000000000 Cl
   0.7904880000000000    0.4251610000000000    0.1704000000000001 Cl
   0.1888560000000001    0.1794525000000000    0.3531600000000001 Cl
   0.8156240000000001    0.8185389999999999    0.6456520000000000 Cl
   0.7312315000000001    0.2830734999999999    0.5625500000000000 Cs
   0.2727775000000000    0.7133015000000001    0.4371080000000000 Cs
   0.5006335000000000    0.4981934999999999    0.0027620000000000 Pd
