Cs2 Gd1 Ag1 Cl6
1.0
   0.0000000000000000    5.4556509999999996    5.4556509999999996
   5.4556509999999996    0.0000000000000000    5.4556509999999996
   5.4556509999999996    5.4556509999999996    0.0000000000000000
Cs Gd Ag Cl
2 1 1 6
direct
   0.7500000000000000    0.7500000000000000    0.7500000000000000 Cs
   0.2500000000000000    0.2500000000000000    0.2500000000000000 Cs
   0.0000000000000000    0.0000000000000000    0.0000000000000000 Gd
   0.5000000000000000    0.5000000000000000    0.5000000000000000 Ag
   0.7547930000000000    0.2452070000000000    0.2452070000000000 Cl
   0.2452070000000000    0.2452070000000000    0.7547930000000000 Cl
   0.2452070000000000    0.7547930000000000    0.7547930000000000 Cl
   0.2452070000000000    0.7547930000000000    0.2452070000000000 Cl
   0.7547930000000000    0.2452070000000000    0.7547930000000000 Cl
   0.7547930000000000    0.7547930000000000    0.2452070000000000 Cl
