Cs2 Na1 Ru1 Cl6
1.0
  -6.2665360973335469    0.0000000000000000    3.5854275292325464
   2.0589488923391155   -5.9243370673486284    3.6039868544975890
   0.0000000000000000    0.0000000000000000    7.2569365799999996
Cl Cs Na Ru
6 2 1 1
direct
   0.2672645000000000    0.2719065000000002    0.9996569999999999 Cl
   0.7305545000000000    0.2724775000000000    0.0017039999999999 Cl
   0.2660060000000000    0.7336360000000000    0.0007080000000000 Cl
   0.7284990000000000    0.7332985000000001    0.0025340000000000 Cl
   0.7334060000000000    0.7375515000000000    0.5325690000000001 Cl
   0.2629185000000001    0.2666729999999999    0.4696580000000000 Cl
   0.7478235000000000    0.2524265000000000    0.5018260000000000 Cs
   0.2485105000000001    0.7527770000000000    0.5003550000000001 Cs
   0.9977925000000001    0.0027645000000002    0.0008889999999998 Na
   0.4978119999999998    0.5026714999999999    0.0011080000000000 Ru
