Cs2 Sb1 Au1 Cl6
1.0
   0.0000000000000000    5.4108739999999997    5.4108739999999997
   5.4108739999999997    0.0000000000000000    5.4108739999999997
   5.4108739999999997    5.4108739999999997    0.0000000000000000
Cs Sb Au Cl
2 1 1 6
direct
   0.7500000000000000    0.7500000000000000    0.7500000000000000 Cs
   0.2500000000000000    0.2500000000000000    0.2500000000000000 Cs
   0.0000000000000000    0.0000000000000000    0.0000000000000000 Sb
   0.5000000000000000    0.5000000000000000    0.5000000000000000 Au
   0.7527420000000000    0.2472580000000000    0.2472580000000000 Cl
   0.2472580000000000    0.2472580000000000    0.7527420000000000 Cl
   0.2472580000000000    0.7527420000000000    0.7527420000000000 Cl
   0.2472580000000000    0.7527420000000000    0.2472580000000000 Cl
   0.7527420000000000    0.2472580000000000    0.7527420000000000 Cl
   0.7527420000000000    0.7527420000000000    0.2472580000000000 Cl
