Cs4 Y2 Au2 Cl12
1.0
  -3.4511152070772080    6.4578217190040865   -3.9176822322969271
  -3.7643262492424729   -6.4578217190040865   -4.2722831618930996
  -7.2154414563196809    0.0000000000000000    6.3658213858099728
Cs Y Au Cl
4 2 2 12
direct
   0.5643660000000000    0.7830450000000000    0.9087060000000001 Cs
   0.0639980000000000    0.2825800000000001    0.5908539999999999 Cs
   0.9323720000000000    0.7206979999999999    0.4077860000000001 Cs
   0.4328370000000001    0.2211170000000001    0.0921509999999999 Cs
   0.4977810000000001    0.0017530000000001    0.5006509999999997 Y
   0.9995649999999999    0.5031380000000000    0.9982720000000000 Y
   0.9981880000000001    0.0031390000000000    0.9984920000000000 Au
   0.4980660000000000    0.5019609999999999    0.5003690000000003 Au
   0.6202950000000000    0.9303040000000000    0.2649050000000001 Cl
   0.2658239999999999    0.4596639999999999    0.8748560000000001 Cl
   0.7644579999999999    0.9594499999999999    0.6242730000000002 Cl
   0.1225140000000000    0.4321230000000000    0.2342470000000000 Cl
   0.2315760000000000    0.0436660000000000    0.3761979999999998 Cl
   0.8781200000000000    0.5746890000000000    0.7622440000000000 Cl
   0.3756850000000002    0.0735320000000000    0.7361339999999997 Cl
   0.7332490000000000    0.5446240000000000    0.1226720000000000 Cl
   0.1427140000000000    0.8109949999999999    0.0521610000000000 Cl
   0.6421749999999999    0.3095110000000000    0.4464319999999999 Cl
   0.3535500000000000    0.6941550000000001    0.5541130000000001 Cl
   0.8538190000000000    0.1954809999999999    0.9449019999999999 Cl
