Cs2 Cd1 Cu1 Cl6
1.0
  -0.0000000000000000   -0.0000000000000000    7.1488457050000003
  -3.9590791149071562   -5.9566330965058913   -0.0004766921433479
   6.4599452101242116   -0.0000000000000000   -3.5725494248814540
Cd Cl Cs Cu
1 6 2 1
direct
   0.9958855000000000    0.9980145000000000    0.9963074999999999 Cd
   0.2677809999999999    0.2726320000000000    0.9991699999999998 Cl
   0.2217595000000000    0.2268555000000000    0.4532910000000001 Cl
   0.7658599999999999    0.7703120000000000    0.5404635000000000 Cl
   0.7226715000000000    0.7272845000000000    0.9992020000000000 Cl
   0.2678029999999999    0.7267680000000000    0.9992690000000000 Cl
   0.7227840000000001    0.2721240000000000    0.9990830000000001 Cl
   0.7453650000000001    0.2496490000000000    0.4991320000000000 Cs
   0.2456290000000002    0.7497199999999999    0.4992090000000001 Cs
   0.4961450000000001    0.4997760000000000    0.9993545000000000 Cu
