Cs2 Tl1 Fe1 Cl6
1.0
   4.3913982605533910    6.2006976083028009    0.0206253176269477
   6.5859107419459848   -0.0000000000000000   -3.7917337805302163
  -2.1945124813925934    6.2006976083028009   -3.8145926968428365
Cl Cs Fe Tl
6 2 1 1
direct
   0.9942999999999999    0.7694240000000002    0.7947275000000001 Cl
   0.0036180000000000    0.2084559999999999    0.7597100000000001 Cl
   0.9911229999999999    0.8015540000000003    0.2382455000000001 Cl
   0.0018920000000000    0.2383600000000000    0.2032764999999999 Cl
   0.4409630000000000    0.7784985000000001    0.7798659999999999 Cl
   0.5552079999999999    0.2305560000000000    0.2168475000000001 Cl
   0.4968650000000001    0.7554400000000000    0.2501525000000000 Cs
   0.4971559999999999    0.2549330000000001    0.7501330000000000 Cs
   0.9989239999999998    0.0040320000000003    0.9974280000000001 Fe
   0.9983990000000000    0.5045405000000003    0.4981420000000000 Tl
