Cs2 Tl1 Ga1 Cl6
1.0
   0.0000000000000000    0.0000000000000000   -7.5935066249999998
   6.5835901072905765    0.0000000000000000   -3.7952325521762509
   2.1915469814509883   -6.2097478112954780   -3.7966031688436539
Cl Cs Ga Tl
6 2 1 1
direct
   0.7778805000000000    0.7808434999999999    0.2193795000000001 Cl
   0.7778610000000002    0.2225559999999999    0.2188999999999999 Cl
   0.2192445000000002    0.7806379999999999    0.7781914999999999 Cl
   0.2195050000000000    0.2219915000000000    0.7780780000000000 Cl
   0.7778625000000000    0.2213460000000000    0.7783055000000000 Cl
   0.2193164999999997    0.7811705000000000    0.2193265000000000 Cl
   0.2480929999999999    0.2523945000000000    0.2477610000000000 Cs
   0.7480184999999999    0.7524610000000000    0.7478785000000000 Cs
   0.9985735000000000    0.0016355000000000    0.9985195000000000 Ga
   0.4985174999999999    0.5018849999999998    0.4983005000000000 Tl
