Cs4 Rb2 Y2 Cl12
1.0
  -6.8258078416785688    0.0000000000000000    3.8590397706113539
  -2.3564756548261232    6.6201148453084349   -4.1945448354991699
  -4.4693321868524460   -6.6201148453084349   -7.9136178738894749
Cs Rb Y Cl
4 2 2 12
direct
   0.9801030000000001    0.5599010000000000    0.7492690000000000 Cs
   0.4800790000000001    0.9419629999999999    0.2495250000000000 Cs
   0.5179159999999999    0.0590410000000000    0.7494910000000000 Cs
   0.0178680000000002    0.4416000000000000    0.2502530000000001 Cs
   0.9990610000000000    0.9997559999999999    0.9998730000000000 Rb
   0.4989230000000001    0.5005459999999999    0.4996550000000000 Rb
   0.4993669999999999    0.5000570000000000    0.9996820000000000 Y
   0.9990050000000000    0.0008410000000001    0.4996390000000001 Y
   0.2280850000000002    0.6819019999999999    0.0406859999999999 Cl
   0.8188630000000000    0.2655160000000000    0.5479160000000001 Cl
   0.6779660000000001    0.7665909999999999    0.9507310000000000 Cl
   0.2704540000000001    0.1834180000000000    0.4586560000000000 Cl
   0.3205440000000002    0.2334269999999999    0.0482250000000000 Cl
   0.7286570000000000    0.8169960000000001    0.5409649999999999 Cl
   0.7703760000000001    0.3177260000000000    0.9589150000000000 Cl
   0.1792000000000001    0.7357680000000000    0.4518270000000000 Cl
   0.0849760000000001    0.9773499999999999    0.7250989999999999 Cl
   0.5855980000000001    0.5281510000000000    0.2248710000000000 Cl
   0.4127860000000000    0.4749349999999999    0.7742760000000000 Cl
   0.9129910000000001    0.0259429999999999    0.2743490000000000 Cl
