Cs4 Mn2 Zn2 Cl12
1.0
  -3.7005158036418577    5.9439531271844457   -3.0458271764808531
   7.3988706281896786    0.0000000000000000   -3.8491760224731748
  -3.6983548245478208   -5.9439531271844457   -7.1197480810459730
Cs Mn Zn Cl
4 2 2 12
direct
   0.5610060000000001    0.9733090000000001    0.7684240000000000 Cs
   0.9462320000000002    0.5321090000000002    0.2686490000000001 Cs
   0.9512160000000001    0.5520570000000000    0.7332110000000001 Cs
   0.5550349999999999    0.9543490000000001    0.2333310000000001 Cs
   0.0790140000000000    0.1048850000000001    0.0019130000000001 Mn
   0.4276330000000001    0.4009480000000002    0.5020899999999999 Mn
   0.4468880000000000    0.5356210000000000    0.9616749999999999 Zn
   0.0588820000000000    0.9687550000000001    0.4587480000000000 Zn
   0.7247300000000001    0.6869650000000003    0.0001750000000001 Cl
   0.1160130000000001    0.2429390000000002    0.5065990000000000 Cl
   0.8544120000000002    0.2481490000000002    0.0054920000000001 Cl
   0.2607560000000000    0.8255850000000000    0.5021540000000000 Cl
   0.2450010000000000    0.6800960000000000    0.0011720000000000 Cl
   0.6517250000000000    0.2571340000000000    0.5039970000000000 Cl
   0.7813780000000000    0.8187020000000000    0.4995060000000000 Cl
   0.3905970000000000    0.2618779999999999    0.0090789999999999 Cl
   0.0664740000000000    0.9759910000000001    0.7985820000000000 Cl
   0.4397640000000000    0.5311620000000001    0.2987990000000000 Cl
   0.4420060000000000    0.5328860000000001    0.7165060000000000 Cl
   0.0644470000000000    0.9699490000000001    0.2150620000000000 Cl
