Cs4 Nb2 Hg2 Cl12
1.0
  -2.1029578479368007    5.9064351588260253   -3.0283255181021738
   6.6120864318141157    0.0000000000000000   -6.0360382613788808
  -4.5091285838773150   -5.9064351588260253   -8.5029334605189444
Cs Nb Hg Cl
4 2 2 12
direct
   0.4713100000000000    0.9939280000000000    0.7698640000000000 Cs
   0.9535680000000001    0.4808110000000000    0.2770540000000000 Cs
   0.0317840000000001    0.5056830000000000    0.7314020000000001 Cs
   0.5499340000000000    0.0181510000000000    0.2243820000000000 Cs
   0.4895870000000000    0.5062219999999999    0.0060220000000000 Nb
   0.0138189999999999    0.9927610000000000    0.4959869999999998 Nb
   0.9863740000000000    0.0134130000000000    0.9851960000000000 Hg
   0.5172049999999999    0.4846580000000000    0.5172099999999999 Hg
   0.6373220000000002    0.7318709999999999    0.0483900000000000 Cl
   0.1537310000000001    0.2211650000000001    0.5415980000000000 Cl
   0.8009680000000002    0.3692630000000000    0.0147680000000000 Cl
   0.3253130000000001    0.8595210000000000    0.5053870000000000 Cl
   0.1782990000000000    0.6399540000000000    0.9957950000000000 Cl
   0.7018430000000000    0.1296520000000000    0.4859310000000000 Cl
   0.3483300000000000    0.2783740000000000    0.9607180000000000 Cl
   0.8662980000000001    0.7670159999999999    0.4535860000000000 Cl
   0.9714150000000000    0.8979809999999999    0.7129060000000000 Cl
   0.4503340000000001    0.4106810000000000    0.2235300000000000 Cl
   0.5307640000000000    0.6018180000000001    0.7887830000000000 Cl
   0.0530790000000000    0.0887840000000000    0.2783940000000000 Cl
