Cs4 Sr2 Pb2 Cl12
1.0
  -6.8055175265478125    0.0000000000000000    3.8913947737834871
  -2.3108292788271032    6.5131289928717049   -4.0435624253998510
  -4.4946882477207097   -6.5131289928717049   -7.9213852308166617
Cs Sr Pb Cl
4 2 2 12
direct
   0.9847320000000001    0.5473790000000002    0.7534610000000000 Cs
   0.4846620000000000    0.9482660000000001    0.2535970000000000 Cs
   0.5119970000000000    0.0461450000000001    0.7530980000000000 Cs
   0.0122930000000000    0.4490570000000000    0.2532070000000000 Cs
   0.4981609999999999    0.4976290000000002    0.0030470000000001 Sr
   0.9983479999999999    0.9978320000000002    0.5029640000000001 Sr
   0.9984599999999999    0.9981320000000001    0.0031020000000002 Pb
   0.4989280000000000    0.4974470000000002    0.5032690000000001 Pb
   0.2074939999999999    0.7087110000000002    0.0411260000000001 Cl
   0.7901010000000002    0.2873050000000001    0.5411020000000001 Cl
   0.7074170000000000    0.7871760000000000    0.9676240000000000 Cl
   0.2882080000000000    0.2098780000000002    0.4646100000000000 Cl
   0.2898170000000000    0.2082920000000000    0.0412000000000000 Cl
   0.7076570000000000    0.7870530000000000    0.5413560000000001 Cl
   0.7882630000000000    0.2861830000000000    0.9645510000000000 Cl
   0.2077280000000000    0.7081230000000001    0.4682130000000000 Cl
   0.0693280000000000    0.9842820000000001    0.7531430000000000 Cl
   0.5706030000000000    0.5114090000000001    0.2533570000000001 Cl
   0.4258370000000000    0.4818750000000001    0.7529090000000001 Cl
   0.9261670000000001    0.0111410000000000    0.2529420000000001 Cl
