Cs2 Bi1 Au1 Cl6
1.0
  -0.7505409790071718    6.2431980010908310   -4.0981182513689287
  -6.3035282779558504    0.0000000000000000    4.1310396455737504
   6.3035282779558504    0.0000000000000000    4.2596066294262496
Au Bi Cl Cs
1 1 6 2
direct
   0.0019755000000001    0.9980015000000003    0.9979880000000003 Au
   0.5016925000000001    0.4984880000000003    0.9982480000000004 Bi
   0.7817995000000000    0.3322310000000002    0.9989300000000002 Cl
   0.7020120000000001    0.8573770000000003    0.9993680000000005 Cl
   0.3017354999999999    0.1384164999999999    0.9961910000000000 Cl
   0.2202284999999999    0.6634935000000002    0.9969760000000002 Cl
   0.2768435000000000    0.2749945000000003    0.5467870000000000 Cl
   0.7290495000000000    0.7245255000000000    0.4499360000000001 Cl
   0.7494769999999999    0.2460315000000000    0.4940990000000001 Cs
   0.2537100000000001    0.7511095000000003    0.5016350000000003 Cs
