Cs2 K1 Mn1 Cl6
1.0
   6.4896600208938873   -0.0000000000000000   -3.5914279048880347
  -1.9873879209684979    6.1802791242016726   -3.5961585728238639
   4.5022720999253893    6.1802791242016726    0.4799997322881016
Cl Cs K Mn
6 2 1 1
direct
   0.6900634999999998    0.7479309999999999    0.9978570000000000 Cl
   0.2554135000000000    0.6853580000000001    0.0012880000000000 Cl
   0.7509799999999998    0.3153219999999999    0.9964660000000002 Cl
   0.3175430000000000    0.2556055000000000    0.9968880000000000 Cl
   0.7345945000000000    0.7344925000000000    0.5351180000000000 Cl
   0.2735534999999999    0.2665089999999999    0.4619670000000001 Cl
   0.7515050000000000    0.2499335000000000    0.4990530000000000 Cs
   0.2517569999999998    0.7496394999999999    0.4990030000000000 Cs
   0.0034405000000000    0.0005764999999999    0.9984280000000001 K
   0.5040429999999999    0.5007725000000000    0.9986440000000001 Mn
