Cs4 Co2 Ge2 Cl12
1.0
   2.8743837002104335   -6.1048861192890795    4.3445111703920603
   6.7389837507668107   -0.0000000000000000   -4.3600336128365189
   3.8646000505563771    6.1048861192890795    5.9931297467714213
Cs Co Ge Cl
4 2 2 12
direct
   0.5103070000000000    0.0116050000000001    0.2516250000000000 Cs
   0.0063149999999998    0.5101570000000001    0.7517509999999999 Cs
   0.0085070000000000    0.5073620000000001    0.2516540000000000 Cs
   0.5107870000000000    0.0109510000000000    0.7515790000000001 Cs
   0.0883940000000000    0.9994229999999998    0.0003650000000001 Co
   0.4992440000000000    0.5885910000000000    0.5003790000000000 Co
   0.5204199999999999    0.4952770000000000    0.0012300000000000 Ge
   0.9947830000000000    0.0224770000000000    0.5013710000000000 Ge
   0.2506960000000000    0.7695599999999999    0.0032020000000000 Cl
   0.7849489999999999    0.2274910000000001    0.5019890000000000 Cl
   0.2368739999999999    0.2348090000000000    0.9985800000000000 Cl
   0.7352059999999999    0.7362350000000000    0.4990480000000000 Cl
   0.7143430000000000    0.7116440000000001    0.0037660000000000 Cl
   0.2100030000000001    0.2174769999999999    0.5038550000000001 Cl
   0.7267430000000000    0.2863290000000000    0.0014170000000000 Cl
   0.2705220000000000    0.7522500000000001    0.5028100000000000 Cl
   0.9570130000000000    0.9927510000000001    0.2129350000000000 Cl
   0.4907439999999999    0.4571260000000000    0.7132470000000000 Cl
   0.4850400000000000    0.4537099999999999    0.2898240000000001 Cl
   0.9536749999999998    0.9858030000000001    0.7896960000000000 Cl
