Cs2 Ba1 Co1 Cl6
1.0
   6.6140762411168295   -0.0000000000000000   -3.8059610287127743
  -2.1893510322321292    6.2481335365420678   -3.8156749875804867
   4.4247252088847002    6.2481335365420678    0.0762042687067392
Ba Cl Co Cs
1 6 1 2
direct
   0.9961340000000001    0.9985240000000000    0.0025100000000001 Ba
   0.6918274999999999    0.7492784999999998    0.0043460000000002 Cl
   0.2408570000000000    0.6913549999999999    0.0086580000000001 Cl
   0.7524645000000002    0.3065715000000000    0.9952230000000000 Cl
   0.2996605000000000    0.2461820000000000    0.0030680000000000 Cl
   0.7188230000000002    0.7288630000000003    0.5522659999999998 Cl
   0.2736264999999999    0.2685035000000000    0.4525430000000000 Cl
   0.4963995000000001    0.4987325000000000    0.0020250000000000 Co
   0.7452409999999999    0.2489609999999999    0.5031160000000001 Cs
   0.2462035000000002    0.7478040000000000    0.5036710000000000 Cs
