Cs2 K1 Ru1 Cl6
1.0
   4.3421466206031774    6.1585128417219250    0.0277137944341064
  -6.5336412419542809   -0.0000000000000000    3.7575485710465379
   2.1914946213511035   -6.1585128417219250    3.7589169145193555
Cl Cs K Ru
6 2 1 1
direct
   0.0009269999999996    0.2776554999999998    0.2799959999999999 Cl
   0.9984579999999998    0.7208439999999998    0.2762614999999999 Cl
   0.9976709999999998    0.2779754999999999    0.7220809999999996 Cl
   0.9958600000000000    0.7210019999999999    0.7180324999999999 Cl
   0.5535380000000000    0.2746080000000000    0.2734775000000000 Cl
   0.4430250000000000    0.7239085000000001    0.7243245000000000 Cl
   0.4982139999999999    0.2493980000000001    0.7486974999999999 Cs
   0.4978000000000000    0.7488315000000001    0.2491710000000000 Cs
   0.9981409999999998    0.9987524999999999    0.9984975000000000 K
   0.9982660000000000    0.4991820000000000    0.4989740000000000 Ru
