Cs2 Rb1 Rh1 Cl6
1.0
   6.6021455607963508   -0.0000000000000000    3.8055464972060542
  -0.0000000000000000   -0.0000000000000000    7.6274311299999997
   2.2022619362374609   -6.2397992011587569    3.8026387547829335
Cl Cs Rb Rh
6 2 1 1
direct
   0.7186600000000001    0.2763639999999998    0.2914865000000000 Cl
   0.2844975000000000    0.7119745000000001    0.2841060000000001 Cl
   0.7147725000000000    0.2863385000000000    0.7231770000000000 Cl
   0.2812440000000001    0.7222759999999999    0.7150690000000000 Cl
   0.2810610000000000    0.2833950000000000    0.7228585000000000 Cl
   0.7187835000000001    0.7150215000000000    0.2837920000000002 Cl
   0.2493870000000000    0.2493950000000000    0.2544575000000001 Cs
   0.7496275000000000    0.7494164999999999    0.7537405000000000 Cs
   0.9998150000000002    0.9992320000000000    0.0034835000000000 Rb
   0.4998625000000000    0.4992414999999999    0.5033875000000000 Rh
