Cs2 Ba1 Cr1 Cl6
1.0
  -6.5695985272048212    0.0000000000000000   -3.5137390713718384
   1.8823407979431699   -6.2934295917627319   -3.5204423627248218
  -4.6872577292616509   -6.2934295917627319    0.8665197259033386
Ba Cl Cr Cs
1 6 1 2
direct
   0.0017309999999999    0.9987015000000000    0.9979935000000000 Ba
   0.7456935000000001    0.7411045000000002    0.5110649999999999 Cl
   0.7827594999999999    0.3419420000000001    0.9980645000000001 Cl
   0.2203899999999999    0.6557450000000000    0.9995170000000000 Cl
   0.2578690000000000    0.2551105000000000    0.4844934999999999 Cl
   0.6587775000000000    0.7795825000000001    0.9985449999999999 Cl
   0.3427310000000000    0.2177285000000001    0.9998684999999998 Cl
   0.5009104999999999    0.4982525000000000    0.9999690000000001 Cr
   0.2516810000000000    0.7477030000000001    0.4981080000000000 Cs
   0.7514840000000000    0.2479315000000002    0.4982674999999999 Cs
