Cs2 Na1 Tl1 Cl6
1.0
   0.0000000000000000    0.0000000000000000   -7.5221334899999999
  -2.1747773918675675    6.1454924401603153   -3.7605396685006531
   4.3449178082062261    6.1454924401603153   -0.0001179708415977
Cl Cs Na Tl
6 2 1 1
direct
   0.7446745000000000    0.9998879999999998    0.7518575000000001 Cl
   0.2550729999999999    0.4918835000000001    0.2555980000000000 Cl
   0.7467360000000000    0.5078889999999996    0.7478560000000002 Cl
   0.2589055000000001    0.9999195000000001    0.2522325000000000 Cl
   0.7516545000000000    0.9993995000000000    0.2599325000000000 Cl
   0.2509110000000001    0.0002814999999999    0.7444200000000001 Cl
   0.7516990000000001    0.4999820000000000    0.2517190000000001 Cs
   0.2519170000000001    0.4996744999999999    0.7519230000000000 Cs
   0.0016640000000000    0.9998820000000000    0.0024870000000000 Na
   0.5014894999999999    0.9998720000000001    0.5023744999999999 Tl
