Cs2 Rb1 As1 Br6
1.0
   0.0000000000000000    5.9481739999999999    5.9481739999999999
   5.9481739999999999    0.0000000000000000    5.9481739999999999
   5.9481739999999999    5.9481739999999999    0.0000000000000000
Cs Rb As Br
2 1 1 6
direct
   0.7500000000000000    0.7500000000000000    0.7500000000000000 Cs
   0.2500000000000000    0.2500000000000000    0.2500000000000000 Cs
   0.5000000000000000    0.5000000000000000    0.5000000000000000 Rb
   0.0000000000000000    0.0000000000000000    0.0000000000000000 As
   0.7754520000000000    0.2245480000000000    0.2245480000000000 Br
   0.2245480000000000    0.2245480000000000    0.7754520000000000 Br
   0.2245480000000000    0.7754520000000000    0.7754520000000000 Br
   0.2245480000000000    0.7754520000000000    0.2245480000000000 Br
   0.7754520000000000    0.2245480000000000    0.7754520000000000 Br
   0.7754520000000000    0.7754520000000000    0.2245480000000000 Br
