Cs4 Rb2 Ga2 Cl12
1.0
  -6.6217826600573817    0.0000000000000000    3.7599873051567632
  -2.2334235769900781    6.2894039753091073   -3.9313711944616316
  -4.3883590830673036   -6.2894039753091073   -7.7144673003816058
Cs Rb Ga Cl
4 2 2 12
direct
   0.0208490000000000    0.4948460000000001    0.7482500000000000 Cs
   0.4807040000000001    0.9955670000000000    0.2481619999999999 Cs
   0.5198409999999999    0.9998920000000000    0.7516050000000000 Cs
   0.9811800000000001    0.5004620000000002    0.2513240000000000 Cs
   0.5005740000000000    0.4981440000000000    0.9998469999999999 Rb
   0.0006530000000000    0.9984710000000000    0.5000149999999999 Rb
   0.0004320000000000    0.9980190000000000    0.9999100000000000 Ga
   0.5008530000000000    0.4984820000000000    0.4997739999999999 Ga
   0.1967820000000001    0.7628620000000002    0.0248559999999999 Cl
   0.7432830000000001    0.3080959999999999    0.5182439999999999 Cl
   0.7589690000000001    0.8070050000000001    0.0187599999999999 Cl
   0.3054880000000000    0.2626530000000000    0.5247780000000000 Cl
   0.2413670000000000    0.1900710000000000    0.9809550000000000 Cl
   0.6955810000000000    0.7349500000000001    0.4747940000000000 Cl
   0.8047730000000000    0.2338800000000000    0.9748789999999999 Cl
   0.2590190000000000    0.6897200000000001    0.4812060000000000 Cl
   0.0043450000000000    0.9554730000000000    0.7842390000000000 Cl
   0.4968290000000001    0.4566710000000000    0.2840069999999999 Cl
   0.5041970000000001    0.5383420000000000    0.7157169999999999 Cl
   0.9963680000000000    0.0383279999999999    0.2157529999999999 Cl
