Cs2 Na1 Mn1 Cl6
1.0
   6.2653298068165935    0.0000000000000000   -3.5266188547008408
  -1.9978781806614097    5.9458095599935472   -3.5390705660047090
   0.0000000000000000    0.0000000000000000    7.3208760149999996
Cl Cs Mn Na
6 2 1 1
direct
   0.7697769999999999    0.7720870000000000    0.0004780000000000 Cl
   0.2229565000000000    0.7731764999999999    0.0003230000000000 Cl
   0.7700290000000000    0.2236155000000000    0.0002980000000000 Cl
   0.2230625000000000    0.2251495000000000    0.0002100000000000 Cl
   0.2440035000000000    0.2459020000000000    0.4937480000000000 Cl
   0.7507349999999999    0.7524955000000000    0.5068710000000001 Cl
   0.2474315000000000    0.7490485000000000    0.5000670000000000 Cs
   0.7475700000000000    0.2493065000000000    0.5005130000000000 Cs
   0.9967755000000000    0.9984585000000000    0.0004930000000000 Mn
   0.4974480000000000    0.4988610000000000    0.0003770000000000 Na
