Cs2 Zn1 Pt1 Cl6
1.0
  -1.5228524301219077    4.8261565986465262   -3.2834307084440360
  -1.5228524301219077    4.8261565986465262    5.5144858665559644
   6.6662743168254028    4.8261565986465262    0.6044046922857564
Cl Cs Pt Zn
6 2 1 1
direct
   0.9108260000000002    0.3009134999999998    0.6734675000000000 Cl
   0.7092620000000001    0.1068730000000001    0.0693240000000000 Cl
   0.3966185000000001    0.0375209999999998    0.7033080000000000 Cl
   0.1750495000000001    0.8341114999999999    0.0977745000000000 Cl
   0.5601750000000001    0.4443509999999999    0.3713570000000000 Cl
   0.3173160000000001    0.4965954999999999    0.8306015000000000 Cl
   0.1561570000000000    0.2186290000000000    0.2666000000000001 Cs
   0.7402035000000000    0.6615169999999999    0.9471660000000001 Cs
   0.0462399999999999    0.0676064999999998    0.8877135000000000 Pt
   0.5193690000000000    0.3296964999999999    0.6537705000000001 Zn
