Cs2 Ca1 Ni1 Cl6
1.0
   2.0671255554073400   -5.9272616239540330    3.6058000869784790
   6.2776465853801700   -0.0000000000000000   -3.6061285334783033
  -2.0671255554073404    5.9272616239540330    3.6666417230215211
Ca Cl Cs Ni
1 6 2 1
direct
   0.9996010000000001    0.9956760000000001    0.9951939999999999 Ca
   0.2660579999999999    0.7317540000000000    0.9974890000000000 Cl
   0.2650994999999998    0.2620044999999998    0.9957819999999997 Cl
   0.7339449999999998    0.7308029999999999    0.9958399999999999 Cl
   0.7336650000000000    0.2614300000000001    0.9950140000000000 Cl
   0.2599715000000000    0.2603320000000000    0.5201410000000000 Cl
   0.7369339999999998    0.7348425000000000    0.4716319999999998 Cl
   0.7491655000000000    0.2471665000000001    0.4960360000000000 Cs
   0.2491245000000000    0.7471310000000001    0.4959040000000000 Cs
   0.4997870000000000    0.4958050000000001    0.9955670000000000 Ni
