Cs2 Fe1 Co1 Cl6
1.0
  -4.0933693371698165   -5.7909876335476920   -0.0077241545067999
   2.0535842418132537   -5.7909876335476920    3.5531052784212291
  -6.1469535789830703    0.0000000000000000    3.5533316370719703
Cl Co Cs Fe
6 1 2 1
direct
   0.9984130000000001    0.2426055000000000    0.2423969999999998 Cl
   0.9992059999999998    0.2417320000000000    0.7601240000000000 Cl
   0.9998149999999995    0.7602360000000004    0.2409185000000001 Cl
   0.0004130000000000    0.7597085000000000    0.7595259999999999 Cl
   0.4692299999999998    0.2661085000000000    0.2663490000000000 Cl
   0.5300919999999999    0.7353665000000000    0.7343215000000001 Cl
   0.0007699999999997    0.0011750000000001    0.0013445000000001 Co
   0.4996639999999997    0.7509770000000001    0.2501715000000001 Cs
   0.4996859999999999    0.2505820000000000    0.7509195000000000 Cs
   0.0002170000000000    0.5021475000000000    0.5011204999999999 Fe
