Cs4 Cd2 Pb2 Cl12
1.0
   2.2027359557700081   -6.2475056415202159    3.8126081402139049
   6.6571801565864712   -0.0000000000000000   -3.8662638000015894
   4.4544442008164626    6.2475056415202159    7.6765811297845055
Cs Cd Pb Cl
4 2 2 12
direct
   0.5178000000000000    0.9960060000000001    0.2480830000000001 Cs
   0.9876830000000001    0.4974860000000001    0.7495110000000001 Cs
   0.0175490000000001    0.5007470000000001    0.2499140000000001 Cs
   0.4878830000000001    0.0014090000000002    0.7490470000000001 Cs
   0.0019660000000002    0.9992450000000002    0.9993520000000001 Cd
   0.5020740000000000    0.4995450000000001    0.4999080000000001 Cd
   0.5024020000000001    0.4987930000000003    0.9995620000000001 Pb
   0.0024200000000000    0.9993650000000001    0.4994650000000001 Pb
   0.2631169999999999    0.7782460000000000    0.0144080000000001 Cl
   0.7246750000000000    0.2409920000000001    0.5175320000000001 Cl
   0.2225490000000001    0.2588110000000001    0.9804930000000002 Cl
   0.7629700000000000    0.7192250000000000    0.4804690000000001 Cl
   0.7808180000000000    0.7399620000000000    0.0194920000000000 Cl
   0.2407960000000000    0.2802380000000002    0.5193150000000001 Cl
   0.7414010000000002    0.2185490000000001    0.9811480000000001 Cl
   0.2821880000000000    0.7592270000000001    0.4808880000000000 Cl
   0.0050420000000000    0.0334800000000000    0.2391920000000000 Cl
   0.5031120000000001    0.5342930000000001    0.7397120000000001 Cl
   0.5001360000000000    0.4615880000000000    0.2593660000000000 Cl
   0.9994960000000001    0.9620310000000001    0.7588650000000001 Cl
