Cs4 K2 Sb2 Cl12
1.0
  -6.7587084595520670    0.0000000000000000    3.8360187090619884
  -2.2908378479149971    6.5120558854252861   -4.0502153271128023
  -4.4678706116370694   -6.5120558854252861   -7.9057829538252093
Cs K Sb Cl
4 2 2 12
direct
   0.0126560000000000    0.4444640000000000    0.7484530000000000 Cs
   0.5136809999999998    0.0529170000000000    0.2479930000000000 Cs
   0.4838240000000000    0.9449780000000000    0.7497280000000000 Cs
   0.9838989999999999    0.5521280000000000    0.2487140000000000 Cs
   0.9983270000000000    0.9991610000000000    0.9985180000000000 K
   0.4972529999999999    0.4978879999999999    0.4983930000000000 K
   0.4982090000000000    0.4993440000000001    0.9987800000000000 Sb
   0.9983820000000000    0.9978109999999999    0.4988099999999999 Sb
   0.2225390000000002    0.6895460000000001    0.9642470000000000 Cl
   0.8119790000000000    0.2722750000000000    0.4623500000000000 Cl
   0.6853159999999999    0.7738329999999999    0.0353319999999999 Cl
   0.2765079999999999    0.1861440000000000    0.5343220000000000 Cl
   0.3121260000000000    0.2243890000000000    0.9635670000000001 Cl
   0.7218860000000000    0.8085100000000000    0.4633760000000000 Cl
   0.7749889999999998    0.3091380000000000    0.0318040000000001 Cl
   0.1839130000000000    0.7231600000000000    0.5352930000000000 Cl
   0.9290630000000001    0.0097910000000000    0.7314419999999999 Cl
   0.4299310000000000    0.4882069999999998    0.2314899999999999 Cl
   0.5631050000000000    0.5107930000000001    0.7661270000000000 Cl
   0.0662360000000000    0.9867560000000000    0.2663909999999999 Cl
