Cs2 Sr1 Ti1 Cl6
1.0
   2.1892363212063617   -6.1887345977597592   -3.7841229871882489
   4.3833170214721093    6.1887345977597592   -0.0034575049535430
  -0.0000000000000000   -0.0000000000000000    7.5843628949999999
Cl Cs Sr Ti
6 2 1 1
direct
   0.9969805000000000    0.7381355000000001    0.2620009999999999 Cl
   0.5278380000000000    0.2626950000000000    0.2624090000000000 Cl
   0.4729625000000000    0.7410914999999999    0.7326790000000000 Cl
   0.0048209999999999    0.2651460000000000    0.7343220000000001 Cl
   0.0057760000000000    0.2695500000000000    0.2626170000000000 Cl
   0.9943049999999999    0.7321065000000000    0.7335655000000000 Cl
   0.5007245000000000    0.2526525000000000    0.7469580000000000 Cs
   0.5007624999999999    0.7509259999999999    0.2488385000000001 Cs
   0.0005315000000000    0.0014865000000000    0.9978950000000001 Sr
   0.0003615000000000    0.5013900000000000    0.4978665000000002 Ti
