Cs2 Li1 Ce1 Cl6
1.0
   0.0000000000000000    5.4027870000000000    5.4027870000000000
   5.4027870000000000    0.0000000000000000    5.4027870000000000
   5.4027870000000000    5.4027870000000000    0.0000000000000000
Cs Li Ce Cl
2 1 1 6
direct
   0.7500000000000000    0.7500000000000000    0.7500000000000000 Cs
   0.2500000000000000    0.2500000000000000    0.2500000000000000 Cs
   0.5000000000000000    0.5000000000000000    0.5000000000000000 Li
   0.0000000000000000    0.0000000000000000    0.0000000000000000 Ce
   0.7450360000000000    0.2549640000000000    0.2549640000000000 Cl
   0.2549640000000000    0.2549640000000000    0.7450360000000000 Cl
   0.2549640000000000    0.7450360000000000    0.7450360000000000 Cl
   0.2549640000000000    0.7450360000000000    0.2549640000000000 Cl
   0.7450360000000000    0.2549640000000000    0.7450360000000000 Cl
   0.7450360000000000    0.7450360000000000    0.2549640000000000 Cl
