Cs2 Mg1 Hg1 Cl6
1.0
   2.1088828738255914   -5.9822315578861831    3.6661110507449939
   6.3438822276598179   -0.0000000000000000   -3.6659818227506986
  -2.1088828738255914    5.9822315578861831    3.6696855742550065
Cl Cs Hg Mg
6 2 1 1
direct
   0.2605264999999999    0.7438175000000000    0.0023539999999999 Cl
   0.2595350000000000    0.2584805000000000    0.0021899999999999 Cl
   0.7450935000000000    0.7433120000000000    0.0019829999999999 Cl
   0.7444245000000000    0.2595900000000001    0.0026290000000000 Cl
   0.2625244999999998    0.2596495000000000    0.5200260000000000 Cl
   0.7436940000000001    0.7437285000000000    0.4854360000000000 Cl
   0.7534340000000002    0.2524020000000000    0.5037769999999998 Cs
   0.2530420000000001    0.7520575000000000    0.5037490000000001 Cs
   0.0019260000000002    0.0018445000000001    0.0030720000000000 Hg
   0.5022190000000001    0.5017415000000001    0.0031070000000000 Mg
