Cs2 V1 Cr1 Cl6
1.0
   1.8746976510002635   -5.8456018055943186    3.3894683694888559
  -6.1380040438050836   -0.0000000000000000    3.3903644542366953
  -0.0000000000000000   -0.0000000000000000   -7.2494016649999997
Cl Cr Cs V
6 1 2 1
direct
   0.2452034999999999    0.2438905000000000    0.0021719999999998 Cl
   0.2445660000000001    0.7554140000000000    0.0015179999999999 Cl
   0.7576305000000000    0.2436765000000001    0.0017800000000000 Cl
   0.7557890000000000    0.7560745000000000    0.0008730000000000 Cl
   0.7350755000000000    0.7343940000000000    0.4694030000000000 Cl
   0.2658554999999999    0.2650885000000002    0.5336820000000000 Cl
   0.0006809999999998    0.9995134999999999    0.0010150000000000 Cr
   0.2504074999999999    0.7498745000000000    0.5018339999999999 Cs
   0.7500110000000000    0.2503530000000000    0.5020160000000000 Cs
   0.5020985000000000    0.4985140000000000    0.0018260000000001 V
