Cs2 Sr1 Co1 Cl6
1.0
   2.1493518444938622   -6.1036316392456955    3.7092059331327771
   6.4709844514318053   -0.0000000000000000    3.7107707819221725
  -0.0000000000000000   -0.0000000000000000    7.4621180550000004
Cl Co Cs Sr
6 1 2 1
direct
   0.2369275000000000    0.7622300000000001    0.2273950000000000 Cl
   0.2368254999999999    0.2255830000000000    0.7621640000000001 Cl
   0.7651040000000000    0.7706415000000000    0.2372755000000001 Cl
   0.7660140000000000    0.2329305000000000    0.7718665000000000 Cl
   0.7754785000000001    0.2302990000000000    0.2292390000000000 Cl
   0.2272775000000001    0.7636974999999998    0.7699105000000002 Cl
   0.0026590000000000    0.9966705000000000    0.9986075000000000 Co
   0.2501630000000000    0.2478020000000000    0.2495330000000000 Cs
   0.7507540000000000    0.7482150000000001    0.7499620000000000 Cs
   0.5016330000000000    0.4975315000000001    0.4992775000000000 Sr
