Cs2 Na1 Pd1 Cl6
1.0
  -2.1598719531770354    5.9634476438065294    3.5785814945262007
   0.0000000000000000    0.0000000000000000   -7.2864735100000004
  -4.1860448931719993   -5.9634476438065294    0.1221453779685007
Cl Cs Na Pd
6 2 1 1
direct
   0.0026315000000000    0.7400590000000000    0.2672644999999999 Cl
   0.4764060000000001    0.7417590000000001    0.7424160000000000 Cl
   0.5296939999999999    0.2656065000000000    0.2658484999999999 Cl
   0.0027475000000001    0.2672059999999999    0.7409085000000000 Cl
   0.9998385000000000    0.7327170000000001    0.7328074999999999 Cl
   0.0075689999999999    0.2760794999999999    0.2766744999999999 Cl
   0.5026055000000000    0.2533675000000001    0.7539709999999999 Cs
   0.5025684999999999    0.7536010000000000    0.2537934999999999 Cs
   0.0020735000000001    0.0034710000000001    0.0037965000000000 Na
   0.0030270000000000    0.5040344999999999    0.5044885000000000 Pd
