Cs2 Ag1 Pd1 Cl6
1.0
  -0.0000000000000000   -0.0000000000000000    7.1509240199999997
  -4.0739025040011434   -5.8802289546546147   -0.0098546208961636
   6.2805954306704663   -0.0000000000000000   -3.5704736016222247
Ag Cl Cs Pd
1 6 2 1
direct
   0.0015239999999997    0.0015830000000000    0.9999894999999999 Ag
   0.2537210000000000    0.2540030000000000    0.9999890000000000 Cl
   0.2752110000000000    0.2747940000000001    0.5449065000000000 Cl
   0.7302819999999999    0.7298610000000000    0.4550390000000000 Cl
   0.7507845000000000    0.7480895000000001    0.9999660000000001 Cl
   0.2564945000000001    0.7454825000000000    0.9999910000000001 Cl
   0.7473825000000001    0.2563345000000000    0.9999900000000000 Cl
   0.7522439999999999    0.2506290000000001    0.4992145000000000 Cs
   0.2530170000000000    0.7514050000000000    0.5007635000000000 Cs
   0.5022074999999999    0.5012865000000001    0.9999915000000000 Pd
