Cs4 Rb2 Nb2 Cl12
1.0
  -6.7386101864349000    0.0000000000000000    3.7394999595711238
  -2.2383802080559594    6.4520688876292640   -4.0155584925164352
  -4.5002299783789406   -6.4520688876292640   -7.9091798479124407
Cs Rb Nb Cl
4 2 2 12
direct
   0.0140220000000000    0.5548589999999999    0.7549859999999999 Cs
   0.5141920000000001    0.9486209999999998    0.2527130000000000 Cs
   0.4863849999999998    0.0548200000000000    0.7524500000000001 Cs
   0.9859870000000001    0.4494410000000000    0.2481409999999999 Cs
   0.4993000000000001    0.5018669999999998    0.0016590000000000 Rb
   0.0015810000000000    0.0023550000000000    0.5022840000000001 Rb
   0.9991109999999999    0.0018350000000000    0.0021910000000002 Nb
   0.5013440000000000    0.5021890000000000    0.5017180000000000 Nb
   0.2623570000000001    0.8211289999999999    0.9699099999999999 Cl
   0.6761050000000000    0.2400680000000001    0.4695770000000000 Cl
   0.8198029999999999    0.7419970000000001    0.0341690000000001 Cl
   0.2350610000000000    0.3260749999999999    0.5341359999999999 Cl
   0.1777090000000001    0.2622640000000000    0.9698439999999999 Cl
   0.7678629999999999    0.6788010000000000    0.4699500000000000 Cl
   0.7355159999999999    0.1823070000000000    0.0347840000000000 Cl
   0.3278660000000000    0.7651269999999999    0.5350030000000000 Cl
   0.9393990000000000    0.9959660000000000    0.7807170000000000 Cl
   0.4388699999999999    0.5104580000000001    0.2797190000000001 Cl
   0.5620170000000000    0.4920359999999999    0.7238490000000000 Cl
   0.0591739999999999    0.0084640000000000    0.2235880000000000 Cl
