Cs4 Y2 Hg2 Cl12
1.0
   2.2325134652993714   -6.3473453695010980    3.8242240371805276
   6.7532353839037267   -0.0000000000000000   -3.9314049633758090
   4.5207219186043552    6.3473453695010980    7.7760067994436639
Cs Y Hg Cl
4 2 2 12
direct
   0.4914680000000000    0.0411610000000000    0.2493079999999999 Cs
   0.9917850000000000    0.4590380000000001    0.7490960000000001 Cs
   0.0129640000000000    0.5420630000000001    0.2482680000000000 Cs
   0.5131930000000000    0.9576010000000000    0.7477530000000000 Cs
   0.5023870000000001    0.4996119999999999    0.9992560000000000 Y
   0.0023780000000000    0.0007890000000001    0.4989760000000000 Y
   0.0028420000000001    0.9998260000000000    0.9980620000000001 Hg
   0.5029230000000000    0.5000100000000001    0.4985610000000000 Hg
   0.3049500000000001    0.7710830000000001    0.0272500000000000 Cl
   0.7305620000000002    0.1988010000000001    0.5296760000000000 Cl
   0.2309019999999999    0.3015660000000001    0.0296050000000000 Cl
   0.8053150000000000    0.7293269999999999    0.5276140000000000 Cl
   0.7727140000000000    0.6984740000000000    0.9692460000000001 Cl
   0.1999490000000001    0.2713050000000000    0.4701570000000000 Cl
   0.6992170000000001    0.2283219999999999    0.9702700000000001 Cl
   0.2723990000000001    0.8009820000000000    0.4688050000000001 Cl
   0.9438590000000000    0.9971330000000000    0.2636310000000000 Cl
   0.4439680000000001    0.5048380000000000    0.7639070000000000 Cl
   0.5590500000000000    0.4946950000000001    0.2347010000000000 Cl
   0.0603500000000001    0.0064990000000001    0.7342620000000001 Cl
