Cs4 Rb2 Sb2 Cl12
1.0
  -6.8378945995031764    0.0000000000000000    3.8098595411406859
  -2.3507261206738255    6.6419253350289278   -4.2162770476145299
  -4.4871684788293509   -6.6419253350289278   -7.9637658312447837
Cs Rb Sb Cl
4 2 2 12
direct
   0.9774240000000001    0.5638280000000000    0.7494489999999999 Cs
   0.4773999999999999    0.9356160000000000    0.2492340000000000 Cs
   0.5181160000000000    0.0637320000000000    0.7511949999999999 Cs
   0.0180880000000000    0.4358059999999999    0.2514550000000000 Cs
   0.9978289999999999    0.0004739999999999    0.0003149999999998 Rb
   0.4980390000000000    0.4991270000000000    0.5001159999999999 Rb
   0.4976609999999999    0.5002139999999999    0.0002449999999999 Sb
   0.9979359999999999    0.9994130000000000    0.5004040000000000 Sb
   0.2208110000000000    0.6813080000000000    0.0418959999999999 Cl
   0.8225320000000000    0.2710940000000001    0.5465519999999999 Cl
   0.6746030000000001    0.7710560000000000    0.9537920000000000 Cl
   0.2733000000000000    0.1808770000000000    0.4586300000000000 Cl
   0.3222060000000000    0.2287790000000000    0.0466089999999999 Cl
   0.7212390000000000    0.8182330000000000    0.5419119999999999 Cl
   0.7729180000000000    0.3186540000000000    0.9585120000000000 Cl
   0.1749439999999999    0.7287610000000000    0.4537470000000000 Cl
   0.0830300000000000    0.9779399999999999    0.7272090000000000 Cl
   0.5830639999999998    0.5214000000000001    0.2269440000000000 Cl
   0.4140220000000001    0.4787140000000001    0.7735770000000000 Cl
   0.9140560000000000    0.0209790000000000    0.2738199999999998 Cl
