Cs2 Mn1 Tl1 Cl6
1.0
  -2.1745794216060208    6.1402096044699759   -3.7634951208589147
  -2.1745794216060208    6.1402096044699759    3.7671751841410854
   4.3502080773001612    6.1402096044699759    0.0092680161525447
Cl Cs Mn Tl
6 2 1 1
direct
   0.7767695000000001    0.2272535000000001    0.7696055000000001 Cl
   0.7769424999999999    0.7751915000000000    0.2228855000000000 Cl
   0.2278464999999998    0.2290569999999998    0.7691980000000000 Cl
   0.2287099999999999    0.7781025000000000    0.2219715000000000 Cl
   0.7772389999999999    0.2273865000000000    0.2205585000000000 Cl
   0.2280000000000000    0.7754710000000000    0.7720509999999998 Cl
   0.2517874999999998    0.2524700000000000    0.2467560000000001 Cs
   0.7516900000000000    0.7524650000000001    0.7468670000000001 Cs
   0.0027564999999999    0.0014579999999998    0.9956569999999999 Mn
   0.5024970000000001    0.5017595000000000    0.4959534999999999 Tl
