Cs2 Cr1 Au1 Cl6
1.0
  -5.8041372755272711    0.0000000000000000   -3.8854660896646109
   5.8041372755272711    0.0000000000000000   -4.3225845603353896
   0.2931034366542042   -6.1145386279743255    3.9023347578412984
Au Cl Cr Cs
1 6 1 2
direct
   0.0024360000000000    0.9995150000000003    0.0017325000000000 Au
   0.0043850000000000    0.7024769999999999    0.3004519999999998 Cl
   0.1621859999999998    0.3097789999999998    0.3136280000000000 Cl
   0.8432270000000001    0.6898280000000000    0.6894185000000000 Cl
   0.0011140000000001    0.2975550000000000    0.7033504999999999 Cl
   0.3859190000000001    0.7494105000000002    0.7515080000000002 Cl
   0.6203640000000000    0.2494044999999999    0.2508185000000001 Cl
   0.0029549999999999    0.4996695000000002    0.5014665000000000 Cr
   0.5028240000000000    0.7482190000000001    0.2529255000000000 Cs
   0.5024469999999999    0.2520169999999999    0.7514000000000000 Cs
