Cs2 Sn1 Hg1 Cl6
1.0
   2.2092131441383303   -6.2551395972940673    3.8209883175940056
  -6.6338765439046101   -0.0000000000000000    3.8200721408787448
  -0.0000000000000000   -0.0000000000000000   -7.6592517149999999
Cl Cs Hg Sn
6 2 1 1
direct
   0.2437625000000000    0.2399154999999999    0.9958399999999999 Cl
   0.2407310000000000    0.7459365000000000    0.9952310000000000 Cl
   0.7492515000000000    0.2416659999999998    0.9947379999999999 Cl
   0.7478355000000000    0.7489314999999999    0.9955830000000000 Cl
   0.7486870000000000    0.7482670000000000    0.5015539999999999 Cl
   0.2412289999999999    0.2409260000000000    0.4893529999999998 Cl
   0.2456300000000000    0.7447865000000000    0.4960919999999999 Cs
   0.7456360000000000    0.2447365000000000    0.4960329999999999 Cs
   0.9957245000000000    0.9943070000000001    0.9953789999999999 Hg
   0.4956564999999999    0.4943930000000000    0.9955339999999999 Sn
