Cs2 Na1 Lu1 Cl6
1.0
   0.0000000000000000    5.4094230000000003    5.4094230000000003
   5.4094230000000003    0.0000000000000000    5.4094230000000003
   5.4094230000000003    5.4094230000000003    0.0000000000000000
Cs Na Lu Cl
2 1 1 6
direct
   0.7500000000000000    0.7500000000000000    0.7500000000000000 Cs
   0.2500000000000000    0.2500000000000000    0.2500000000000000 Cs
   0.5000000000000000    0.5000000000000000    0.5000000000000000 Na
   0.0000000000000000    0.0000000000000000    0.0000000000000000 Lu
   0.7605870000000000    0.2394130000000000    0.2394130000000000 Cl
   0.2394130000000000    0.2394130000000000    0.7605870000000000 Cl
   0.2394130000000000    0.7605870000000000    0.7605870000000000 Cl
   0.2394130000000000    0.7605870000000000    0.2394130000000000 Cl
   0.7605870000000000    0.2394130000000000    0.7605870000000000 Cl
   0.7605870000000000    0.7605870000000000    0.2394130000000000 Cl
