Cs2 Sc1 Tl1 Cl6
1.0
  -2.1428420488564544    6.3762590610510408   -3.5684360108722379
   0.0000000000000000    0.0000000000000000   -7.6198976250000001
  -6.7401794229804919    0.0000000000000000   -3.5693417927216746
Cl Cs Sc Tl
6 2 1 1
direct
   0.8285210000000001    0.7297720000000001    0.2104410000000001 Cl
   0.7315769999999999    0.2175589999999999    0.8242700000000001 Cl
   0.2766120000000000    0.7847005000000000    0.1737645000000001 Cl
   0.1795470000000000    0.2737059999999999    0.7829720000000000 Cl
   0.2200195000000000    0.8265420000000000    0.7256860000000001 Cl
   0.7902290000000000    0.1756275000000000    0.2713575000000000 Cl
   0.7538745000000001    0.7526510000000000    0.7493050000000000 Cs
   0.2533400000000000    0.2513340000000000    0.2485030000000000 Cs
   0.0045125000000000    0.0013590000000000    0.9983670000000000 Sc
   0.5044774999999999    0.5013809999999999    0.4987360000000001 Tl
