Cs2 Ge1 Pd1 Cl6
1.0
  -0.0000000000000000   -0.0000000000000000    7.1875240600000003
  -4.1474330874001488   -5.8715561250805788   -0.0033185636859452
   6.2294722052361280   -0.0000000000000000   -3.5917960016659443
Cl Cs Ge Pd
6 2 1 1
direct
   0.2480790000000002    0.2490740000000000    0.9973230000000000 Cl
   0.2477579999999999    0.2484729999999997    0.4995409999999998 Cl
   0.7474550000000000    0.7477810000000000    0.4988935000000000 Cl
   0.7474775000000000    0.7480525000000000    0.9983720000000000 Cl
   0.2536410000000000    0.7483700000000000    0.9998509999999999 Cl
   0.7457835000000000    0.2515974999999998    0.9995829999999999 Cl
   0.7493879999999998    0.2498419999999998    0.5000649999999998 Cs
   0.2489475000000000    0.7491835000000000    0.4989054999999999 Cs
   0.9989544999999999    0.9992895000000001    0.9993545000000000 Ge
   0.4990910000000000    0.4993930000000000    0.9994230000000000 Pd
