Cs2 Hg1 Ge1 Cl6
1.0
   6.4707808593595395    0.0000000000000000   -3.7316825950868409
  -2.1573520121005920    6.1012051446039441   -3.7334798726204372
   0.0000000000000000    0.0000000000000000    7.4716587800000003
Cl Cs Ge Hg
6 2 1 1
direct
   0.7511939999999999    0.7505970000000000    0.9965599999999999 Cl
   0.2461455000000000    0.7517710000000000    0.9988810000000000 Cl
   0.7523915000000000    0.2447680000000000    0.9984759999999999 Cl
   0.2471550000000000    0.2465085000000000    0.0011300000000000 Cl
   0.2461335000000000    0.2454875000000000    0.4923910000000000 Cl
   0.7526735000000000    0.7517465000000000    0.5057349999999999 Cl
   0.2483510000000000    0.7475240000000001    0.4980950000000000 Cs
   0.7490114999999999    0.2471045000000000    0.4981600000000000 Cs
   0.9995860000000001    0.9982365000000000    0.9991650000000000 Ge
   0.4997770000000000    0.4986245000000000    0.9995149999999999 Hg
