Cs2 Mn1 Ag1 Cl6
1.0
   6.2077315468573646   -0.0000000000000000    3.6067025428840367
   1.9962219322787826   -5.8782113656300101   -3.6083349318024780
  -1.9962219322787826    5.8782113656300101   -3.6146569881975221
Ag Cl Cs Mn
1 6 2 1
direct
   0.9943099999999999    0.0007080000000002    0.9955545000000001 Ag
   0.7221154999999999    0.7275825000000000    0.4509084999999999 Cl
   0.2536010000000000    0.2562010000000001    0.9982655000000000 Cl
   0.7403780000000000    0.7437509999999999    0.9975145000000000 Cl
   0.2680605000000000    0.2734965000000000    0.5434060000000001 Cl
   0.2678320000000000    0.7254470000000000    0.9959455000000000 Cl
   0.7221890000000000    0.2730430000000001    0.9967145000000001 Cl
   0.2458090000000000    0.7498790000000001    0.4973950000000000 Cs
   0.7457670000000001    0.2497830000000002    0.4973025000000001 Cs
   0.4966940000000000    0.5003649999999999    0.9975284999999999 Mn
