Cs2 Sc1 Hg1 Cl6
1.0
   6.5425972663710654   -0.0000000000000000   -3.7709125193477324
   2.1387615693249962   -6.1922594976951499    3.7677988202953538
  -6.5425972663710654   -0.0000000000000000   -3.8395014906522680
Cl Cs Hg Sc
6 2 1 1
direct
   0.7106770000000001    0.2483675000000001    0.9965360000000001 Cl
   0.2485560000000001    0.2844960000000001    0.9966980000000000 Cl
   0.7512160000000001    0.7124180000000000    0.0022510000000000 Cl
   0.2900270000000001    0.7487845000000000    0.0021430000000000 Cl
   0.7283460000000002    0.7249310000000000    0.4581850000000001 Cl
   0.2712910000000001    0.2715300000000000    0.5407709999999999 Cl
   0.7502435000000000    0.2479310000000000    0.4995750000000000 Cs
   0.2497940000000001    0.7478199999999999    0.4991950000000001 Cs
   0.0002410000000000    0.9982190000000000    0.9997910000000000 Hg
   0.5000820000000000    0.4982730000000000    0.9995330000000000 Sc
