Cs4 Li2 Pd2 Cl12
1.0
   2.1977700089310739   -5.8958747373896356    3.7329233281584200
   6.2911910978307866   -0.0000000000000000   -3.7352091351735148
   4.0934210888997127    5.8958747373896356    6.8971882066680639
Cs Li Pd Cl
4 2 2 12
direct
   0.4952389999999999    0.9950660000000000    0.2515250000000000 Cs
   0.0008249999999999    0.5008620000000001    0.7513839999999999 Cs
   0.0010840000000000    0.5005820000000002    0.2513800000000000 Cs
   0.4953659999999999    0.9950190000000002    0.7515240000000000 Cs
   0.9960700000000000    0.0551200000000000    0.0013440000000000 Li
   0.5554689999999999    0.4958040000000001    0.5013909999999999 Li
   0.4978929999999999    0.4959200000000000    0.0013330000000000 Pd
   0.9961760000000000    0.9976070000000000    0.5013100000000000 Pd
   0.2744740000000000    0.7210560000000001    0.0016350000000000 Cl
   0.7667059999999999    0.2241160000000001    0.5010840000000000 Cl
   0.2687069999999999    0.2667730000000000    0.0010490000000000 Cl
   0.7670289999999998    0.7685380000000002    0.5010389999999999 Cl
   0.7226600000000001    0.7200700000000002    0.0013420000000000 Cl
   0.2202930000000000    0.2223940000000000    0.5012679999999999 Cl
   0.7243520000000000    0.2664500000000001    0.0011160000000000 Cl
   0.2212319999999999    0.7741600000000001    0.5016750000000000 Cl
   0.9947410000000000    0.9946020000000000    0.2371280000000000 Cl
   0.4947509999999999    0.4946310000000000    0.7371390000000000 Cl
   0.4950320000000000    0.4942340000000001    0.2650660000000000 Cl
   0.9945689999999999    0.9947400000000001    0.7650380000000000 Cl
