Cs2 Mn1 Cr1 Cl6
1.0
  -6.2012057592929173    0.0000000000000000   -3.4705470775564624
   1.9436967626965549   -5.8889985542344325   -3.4699648538322103
   0.0000000000000000    0.0000000000000000    7.2716688500000002
Cl Cr Cs Mn
6 1 2 1
direct
   0.2693025000000000    0.2687035000000001    0.5378719999999999 Cl
   0.7591010000000000    0.2426035000000000    0.0000104999999999 Cl
   0.2360089999999999    0.7578810000000000    0.9933099999999999 Cl
   0.7262450000000000    0.7318030000000000    0.4556830000000001 Cl
   0.7567645000000000    0.7593365000000001    0.9955410000000000 Cl
   0.2406020000000001    0.2416785000000000    0.9990005000000000 Cl
   0.9982130000000000    0.0004620000000000    0.9970120000000000 Cr
   0.7491080000000001    0.2502614999999999    0.4982605000000000 Cs
   0.2487670000000001    0.7498485000000000    0.4981145000000001 Cs
   0.4981700000000000    0.5005824999999999    0.9966645000000000 Mn
