Cs2 Eu1 Ag1 Cl6
1.0
   0.0000000000000000    5.4475189999999998    5.4475189999999998
   5.4475189999999998    0.0000000000000000    5.4475189999999998
   5.4475189999999998    5.4475189999999998    0.0000000000000000
Cs Eu Ag Cl
2 1 1 6
direct
   0.7500000000000000    0.7500000000000000    0.7500000000000000 Cs
   0.2500000000000000    0.2500000000000000    0.2500000000000000 Cs
   0.0000000000000000    0.0000000000000000    0.0000000000000000 Eu
   0.5000000000000000    0.5000000000000000    0.5000000000000000 Ag
   0.7484410000000000    0.2515590000000000    0.2515590000000000 Cl
   0.2515590000000000    0.2515590000000000    0.7484410000000000 Cl
   0.2515590000000000    0.7484410000000000    0.7484410000000000 Cl
   0.2515590000000000    0.7484410000000000    0.2515590000000000 Cl
   0.7484410000000000    0.2515590000000000    0.7484410000000000 Cl
   0.7484410000000000    0.7484410000000000    0.2515590000000000 Cl
