Cs2 Fe1 Pb1 Cl6
1.0
  -4.2896331639028880   -6.1164667479693682    0.0851297440071814
   6.5014450225222946    0.0000000000000000    3.7018536821692467
  -2.2118118586194071    6.1164667479693682    3.7041730888235720
Cl Cs Fe Pb
6 2 1 1
direct
   0.4719359999999999    0.2363645000000000    0.2361185000000000 Cl
   0.0039010000000000    0.2349965000000001    0.7654505000000000 Cl
   0.0038670000000001    0.7705894999999998    0.2386995000000001 Cl
   0.5353650000000001    0.7690645000000000    0.7671515000000000 Cl
   0.0035769999999999    0.2340479999999999    0.2284619999999999 Cl
   0.0025924999999999    0.7695164999999998    0.7730080000000001 Cl
   0.5031475000000001    0.7530110000000001    0.2511775000000001 Cs
   0.5032810000000000    0.2525330000000000    0.7519270000000000 Cs
   0.0039925000000000    0.0004959999999998    0.0005305000000000 Fe
   0.0037715000000000    0.5012345000000000    0.5007930000000000 Pb
