Cs2 K1 Co1 Cl6
1.0
   0.0000000000000000    0.0000000000000000   -7.4113763099999996
   4.2725466878357619    6.0565808357365061   -0.0025258857140376
   6.4240907874783284    0.0000000000000000   -3.7049465222507716
Cl Co Cs K
6 1 2 1
direct
   0.7850225000000003    0.7840945000000001    0.9978859999999998 Cl
   0.7844995000000002    0.7846815000000000    0.4297435000000000 Cl
   0.2170874999999999    0.2166745000000000    0.5662715000000001 Cl
   0.2157489999999999    0.2163580000000001    0.9994165000000000 Cl
   0.7840804999999998    0.2161744999999998    0.9983785000000002 Cl
   0.2167725000000000    0.7844245000000001    0.9989914999999999 Cl
   0.0008744999999998    0.0007735000000000    0.9979495000000003 Co
   0.2504630000000000    0.7503160000000000    0.4985930000000000 Cs
   0.7504075000000000    0.2502684999999999    0.4986585000000000 Cs
   0.5007230000000000    0.5005480000000000    0.9978990000000001 K
