Cs2 Na1 As1 Cl6
1.0
   4.2633070863290907    6.0351023665321781   -0.0009337346698128
   6.4000114105733203   -0.0000000000000000    3.6954148696212954
   6.4000114105733203   -0.0000000000000000   -3.6971127953787049
As Cl Cs Na
1 6 2 1
direct
   0.9987380000000001    0.9992659999999999    0.0000179999999999 As
   0.7591815000000000    0.2385855000000003    0.7610865000000001 Cl
   0.7599660000000000    0.2383180000000000    0.2391255000000001 Cl
   0.2373195000000000    0.7601985000000000    0.7607715000000003 Cl
   0.2381900000000000    0.7600330000000001    0.2387595000000000 Cl
   0.2378925000000000    0.2382715000000001    0.7607140000000001 Cl
   0.7594055000000001    0.7599635000000000    0.2396419999999999 Cl
   0.7486515000000000    0.7492695000000000    0.7500684999999999 Cs
   0.2487064999999999    0.2492135000000001    0.2500169999999999 Cs
   0.4989440000000001    0.4993800000000000    0.5000255000000001 Na
