Cs2 Mg1 Ti1 Cl6
1.0
   6.2280988606252716   -0.0000000000000000    3.5926610358853828
  -4.1503568217999067   -5.8713400935986231    0.0003597899812293
  -0.0000000000000000   -0.0000000000000000   -7.1934106949999999
Cl Cs Mg Ti
6 2 1 1
direct
   0.0007074999999999    0.2449650000000000    0.7520364999999998 Cl
   0.4965624999999999    0.2453295000000000    0.2466040000000000 Cl
   0.5067440000000000    0.7502759999999999    0.7522280000000000 Cl
   0.0021970000000001    0.7502510000000000    0.2470700000000001 Cl
   0.0035549999999999    0.7506109999999999    0.7530410000000000 Cl
   0.0006950000000001    0.2452639999999998    0.2464249999999998 Cl
   0.4996599999999999    0.2479335000000001    0.7475695000000000 Cs
   0.5023160000000001    0.7488284999999999    0.2512394999999998 Cs
   0.0011729999999999    0.9979629999999999    0.9994000000000000 Mg
   0.0016689999999999    0.4975370000000000    0.4995709999999999 Ti
