Cs2 K1 Ga1 Cl6
1.0
   0.0000000000000000    5.4469620000000001    5.4469620000000001
   5.4469620000000001    0.0000000000000000    5.4469620000000001
   5.4469620000000001    5.4469620000000001    0.0000000000000000
Cs K Ga Cl
2 1 1 6
direct
   0.7500000000000000    0.7500000000000000    0.7500000000000000 Cs
   0.2500000000000000    0.2500000000000000    0.2500000000000000 Cs
   0.5000000000000000    0.5000000000000000    0.5000000000000000 K
   0.0000000000000000    0.0000000000000000    0.0000000000000000 Ga
   0.7792480000000001    0.2207520000000000    0.2207520000000000 Cl
   0.2207520000000000    0.2207520000000000    0.7792480000000001 Cl
   0.2207520000000000    0.7792480000000001    0.7792480000000001 Cl
   0.2207520000000000    0.7792480000000001    0.2207520000000000 Cl
   0.7792480000000001    0.2207520000000000    0.7792480000000001 Cl
   0.7792480000000001    0.7792480000000001    0.2207520000000000 Cl
