Cs2 Tl1 Cu1 Cl6
1.0
   0.0000000000000000    0.0000000000000000   -7.3017141450000000
  -4.1864787032318782   -5.9931959403117006    0.1166162233001167
  -2.2000705791431052    5.9931959403117006    3.5949180254227513
Cl Cs Cu Tl
6 2 1 1
direct
   0.7625735000000000    0.2412604999999999    0.9999719999999999 Cl
   0.7598029999999998    0.7602025000000000    0.5182064999999998 Cl
   0.2420365000000001    0.2423699999999999    0.4822554999999999 Cl
   0.2405305000000000    0.7622485000000000    0.9999820000000000 Cl
   0.7754160000000000    0.7785020000000000    0.0002130000000000 Cl
   0.2287750000000001    0.2233884999999999    0.9999115000000000 Cl
   0.2500964999999999    0.7503460000000000    0.4992315000000000 Cs
   0.7507545000000000    0.2509390000000000    0.5005225000000002 Cs
   0.0023889999999999    0.0032994999999999    0.0014505000000000 Cu
   0.5013445000000000    0.5018274999999999    0.0005150000000000 Tl
