Cs2 Sr1 Cd1 Cl6
1.0
  -4.4222462684941082   -6.2366452749048724    0.0082856082753029
   2.2166096792684726   -6.2366452749048724   -3.8539605700827626
   2.2166096792684726   -6.2366452749048724    3.8948382849172378
Cd Cl Cs Sr
1 6 2 1
direct
   0.0023400000000000    0.0018970000000001    0.9970990000000001 Cd
   0.2688535000000002    0.7467084999999998    0.2119080000000001 Cl
   0.7607500000000000    0.2002840000000000    0.2777634999999999 Cl
   0.2457484999999999    0.8039415000000001    0.7150165000000001 Cl
   0.7377899999999999    0.2575480000000000    0.7810020000000000 Cl
   0.7899005000000000    0.7350585000000001    0.2151439999999999 Cl
   0.2187585000000002    0.2663574999999999    0.7762449999999999 Cl
   0.7529159999999999    0.7513780000000000    0.7491055000000000 Cs
   0.2548955000000001    0.2516195000000000    0.2436820000000001 Cs
   0.5030745000000000    0.5020055000000000    0.4966825000000000 Sr
