Cs2 Li1 In1 Cl6
1.0
   0.0000000000000000    5.2467740000000003    5.2467740000000003
   5.2467740000000003    0.0000000000000000    5.2467740000000003
   5.2467740000000003    5.2467740000000003    0.0000000000000000
Cs Li In Cl
2 1 1 6
direct
   0.7500000000000000    0.7500000000000000    0.7500000000000000 Cs
   0.2500000000000000    0.2500000000000000    0.2500000000000000 Cs
   0.5000000000000000    0.5000000000000000    0.5000000000000000 Li
   0.0000000000000000    0.0000000000000000    0.0000000000000000 In
   0.7556060000000000    0.2443940000000000    0.2443940000000000 Cl
   0.2443940000000000    0.2443940000000000    0.7556060000000000 Cl
   0.2443940000000000    0.7556060000000000    0.7556060000000000 Cl
   0.2443940000000000    0.7556060000000000    0.2443940000000000 Cl
   0.7556060000000000    0.2443940000000000    0.7556060000000000 Cl
   0.7556060000000000    0.7556060000000000    0.2443940000000000 Cl
