Cs2 Hg1 Au1 Cl6
1.0
  -6.5361120032623985    0.0000000000000000   -3.7142688486925444
  -2.1208263487012191    6.1826004630122995    3.7273475114492345
  -2.1208263487012191    6.1826004630122995   -3.8696459385507658
Au Cl Cs Hg
1 6 2 1
direct
   0.9992635000000000    0.0010745000000000    0.0011595000000000 Au
   0.2813105000000000    0.2827315000000004    0.4385129999999999 Cl
   0.7727055000000000    0.7755875000000001    0.9986780000000001 Cl
   0.2255230000000000    0.2279520000000002    0.0025215000000001 Cl
   0.7164910000000000    0.7199960000000001    0.5633940000000001 Cl
   0.7721360000000000    0.2278260000000000    0.0009640000000000 Cl
   0.2257359999999999    0.7738800000000001    0.0023265000000001 Cl
   0.7489670000000000    0.2509050000000000    0.5015374999999999 Cs
   0.2486675000000002    0.7510985000000001    0.5014539999999998 Cs
   0.4993230000000001    0.5009950000000001    0.0009429999999999 Hg
