Cs2 Ni1 Sn1 Cl6
1.0
  -2.1213252822821569    6.0039697413423259    3.6718762515463386
  -6.3703739796869314    0.0000000000000000    3.6719754587064357
   0.0000000000000000    0.0000000000000000    7.3549352550000000
Cl Cs Ni Sn
6 2 1 1
direct
   0.7666999999999998    0.2315609999999999    0.2347990000000002 Cl
   0.7667034999999999    0.7657915000000001    0.2347595000000000 Cl
   0.2321175000000000    0.2314795000000001    0.7692335000000002 Cl
   0.2321775000000000    0.7660919999999999    0.7691965000000001 Cl
   0.2327764999999999    0.7658530000000000    0.2345405000000001 Cl
   0.7665065000000000    0.2313965000000000    0.7694565000000000 Cl
   0.7495899999999999    0.7485230000000000    0.7520430000000001 Cs
   0.2495070000000000    0.2485135000000003    0.2520900000000000 Cs
   0.9981745000000000    0.9974570000000000    0.0047625000000000 Ni
   0.4987349999999999    0.4979185000000000    0.5036060000000001 Sn
