Cs2 Hg1 Bi1 Cl6
1.0
  -2.1843243215079005    6.3714831717687055    3.8026047580189029
   6.7486821609973919    0.0000000000000000    3.8528604296640943
   0.0000000000000000    0.0000000000000000   -7.8024775100000001
Bi Cl Cs Hg
1 6 2 1
direct
   0.0033140000000000    0.0026565000000002    0.0024295000000002 Bi
   0.7498985000000000    0.7802839999999998    0.5190675000000000 Cl
   0.7961400000000001    0.2849030000000001    0.0309160000000003 Cl
   0.2094385000000000    0.7196634999999999    0.9728829999999999 Cl
   0.2556800000000000    0.2245635000000002    0.4856075000000001 Cl
   0.2789585000000001    0.2282615000000001    0.0125730000000002 Cl
   0.7285840000000001    0.7782985000000000    0.9940415000000000 Cl
   0.7511445000000002    0.2501705000000000    0.5009140000000001 Cs
   0.2549160000000000    0.7533800000000000    0.5032960000000000 Cs
   0.5034860000000000    0.5029730000000000    0.0027470000000002 Hg
