Cs2 Mg1 Cr1 Cl6
1.0
   6.1830599120202177    0.0000000000000000   -3.4404950245720745
  -1.9203171537249966    5.8773719679031613   -3.4448231267368232
   0.0000000000000000    0.0000000000000000    7.2611759449999997
Cl Cr Cs Mg
6 1 2 1
direct
   0.7617259999999999    0.7605035000000000    0.0049090000000000 Cl
   0.2414025000000000    0.7585904999999999    0.0015480000000000 Cl
   0.7599865000000000    0.2404205000000000    0.0026360000000000 Cl
   0.2398880000000000    0.2388995000000000    0.9974780000000001 Cl
   0.2740105000000000    0.2717880000000000    0.5438149999999999 Cl
   0.7275244999999999    0.7264215000000001    0.4597570000000000 Cl
   0.0028285000000000    0.0019045000000000    0.0045470000000000 Cr
   0.2501989999999999    0.7490700000000000    0.5017250000000000 Cs
   0.7511090000000000    0.2485945000000000    0.5017650000000000 Cs
   0.5015890000000001    0.5002005000000000    0.0024340000000000 Mg
