Cs4 Ta2 Cu2 Cl12
1.0
   2.1493910653904580   -6.0287035362195045    3.6086393247532911
   6.4950232069857954   -0.0000000000000000   -3.7620367787935121
   4.3456321415953374    6.0287035362195045    7.4915169264531976
Cs Ta Cu Cl
4 2 2 12
direct
   0.5450710000000000    0.0021960000000000    0.2583560000000000 Cs
   0.9565709999999999    0.4999000000000000    0.7587170000000001 Cs
   0.9566380000000000    0.5003350000000001    0.2393560000000001 Cs
   0.5436400000000000    0.0015870000000000    0.7396440000000000 Cs
   0.4781810000000000    0.5003130000000000    0.9994100000000000 Ta
   0.0225929999999999    0.0032260000000000    0.4993490000000000 Ta
   0.2146699999999999    0.9999790000000000    0.0009730000000000 Cu
   0.2825160000000000    0.5051740000000000    0.4989690000000001 Cu
   0.2148859999999999    0.7189940000000001    0.0002680000000000 Cl
   0.7945910000000000    0.2403840000000001    0.4993680000000000 Cl
   0.2178710000000001    0.2811230000000000    0.9995400000000000 Cl
   0.8008690000000001    0.7635570000000000    0.4989630000000000 Cl
   0.7010640000000000    0.7392919999999999    0.9993660000000001 Cl
   0.2814100000000000    0.2238180000000000    0.5000190000000001 Cl
   0.7053930000000000    0.2625149999999999    0.9982050000000001 Cl
   0.2861629999999999    0.7858130000000001    0.4974840000000000 Cl
   0.0307800000000000    0.0033640000000000    0.2672310000000000 Cl
   0.4694920000000001    0.5021490000000000    0.7674140000000000 Cl
   0.4711309999999999    0.4978510000000001    0.2314410000000000 Cl
   0.0310100000000000    0.9994440000000000    0.7313320000000000 Cl
