Cs2 Na1 Ni1 Cl6
1.0
   6.2536287096624390   -0.0000000000000000    3.5423921835438827
  -0.0000000000000000   -0.0000000000000000   -7.1872831599999998
  -2.1205944763177662    5.8841187249786984    3.5456858989571010
Cl Cs Na Ni
6 2 1 1
direct
   0.7317170000000000    0.4610064999999998    0.7288625000000000 Cl
   0.2692410000000000    0.9994375000000000    0.7297465000000001 Cl
   0.7327654999999998    0.9992109999999998    0.2668445000000000 Cl
   0.2686190000000000    0.5348379999999999    0.2668080000000000 Cl
   0.2769555000000000    0.9988515000000000    0.2746560000000000 Cl
   0.7228620000000000    0.9994550000000001    0.7211440000000001 Cl
   0.2512900000000001    0.5004775000000000    0.7502615000000001 Cs
   0.7512365000000000    0.5004155000000000    0.2501300000000000 Cs
   0.0010340000000001    0.9998444999999999    0.9992975000000001 Na
   0.4989140000000000    0.9957345000000001    0.4940905000000000 Ni
