Cs2 Li1 Sc1 Cl6
1.0
   0.0000000000000000    0.0000000000000000   -7.2182699699999997
  -2.0848909828657649    5.8942866489233117   -3.6087999473241439
   4.1684645718127094    5.8942866489233117   -0.0001345769353369
Cl Cs Li Sc
6 2 1 1
direct
   0.7425050000000000    0.0017485000000000    0.7417520000000000 Cl
   0.2556340000000000    0.4882260000000000    0.2551110000000000 Cl
   0.7423864999999999    0.5144529999999998    0.7418104999999999 Cl
   0.2555145000000000    0.0014185000000000    0.2551015000000000 Cl
   0.7424250000000000    0.0014700000000000    0.2549750000000001 Cl
   0.2553075000000000    0.0017144999999999    0.7418065000000001 Cl
   0.7488490000000000    0.5017260000000001    0.2481740000000000 Cs
   0.2488560000000000    0.5016095000000000    0.7483699999999999 Cs
   0.9988155000000001    0.0017979999999998    0.9981905000000000 Li
   0.4990264999999999    0.0014300000000000    0.4985345000000000 Sc
