Cs4 Fe2 Pt2 Cl12
1.0
  -6.4173824735807798    0.0000000000000000    2.3693392999612342
  -1.3428523069714995    5.8494183704363740   -3.2980915422606549
  -5.0745301666092804   -5.8494183704363740   -9.2270051777781106
Cs Fe Pt Cl
4 2 2 12
direct
   0.9686779999999999    0.5257340000000001    0.7548540000000000 Cs
   0.4837359999999999    0.0196950000000001    0.2492030000000001 Cs
   0.5309039999999999    0.9743670000000000    0.7415190000000000 Cs
   0.0175700000000000    0.4791490000000000    0.2478520000000000 Cs
   0.0358689999999998    0.0045680000000000    0.9971250000000000 Fe
   0.4709449999999999    0.4922530000000001    0.5006750000000000 Fe
   0.5037119999999999    0.4985650000000000    0.9982560000000000 Pt
   0.9968640000000000    0.0009190000000001    0.4987340000000001 Pt
   0.7188149999999999    0.1795640000000001    0.4675830000000001 Cl
   0.2230829999999999    0.6753550000000001    0.9696920000000000 Cl
   0.6767839999999998    0.7816980000000002    0.0004760000000001 Cl
   0.1622229999999999    0.2925210000000001    0.5066610000000000 Cl
   0.3393870000000001    0.2062340000000000    0.9907160000000000 Cl
   0.8234709999999998    0.7180000000000002    0.4945610000000001 Cl
   0.7806329999999999    0.3193440000000001    0.0306830000000001 Cl
   0.2771520000000000    0.8227820000000001    0.5260590000000001 Cl
   0.0186620000000000    0.0291090000000000    0.8111350000000001 Cl
   0.5053039999999999    0.5252410000000001    0.3119880000000000 Cl
   0.4826009999999999    0.4714620000000000    0.6869550000000000 Cl
   0.9956659999999997    0.9731880000000002    0.1858870000000001 Cl
