Cs4 Zn2 Fe2 Cl12
1.0
   6.9380736816998203   -0.0000000000000000   -3.4525152014148994
  -3.3460809274672441    6.0788021840663831   -3.4597293306323529
   3.5919927542325762    6.0788021840663831    7.3302233079527479
Cs Zn Fe Cl
4 2 2 12
direct
   0.9668530000000000    0.5309040000000000    0.2509100000000000 Cs
   0.5503289999999998    0.9435189999999999    0.7508010000000002 Cs
   0.5338820000000001    0.9608559999999999    0.2507890000000000 Cs
   0.9847450000000000    0.5125830000000000    0.7517360000000000 Cs
   0.5253129999999999    0.4380449999999998    0.9496010000000001 Zn
   0.0551240000000001    0.9699420000000001    0.5496070000000001 Zn
   0.1062990000000000    0.0320580000000000    0.0026340000000000 Fe
   0.4672580000000000    0.3848340000000001    0.4982280000000001 Fe
   0.6925280000000000    0.6958560000000000    0.9984520000000000 Cl
   0.1625560000000000    0.2535430000000000    0.4936650000000001 Cl
   0.2407069999999999    0.7969189999999999    0.9925990000000001 Cl
   0.7032489999999999    0.2530390000000001    0.5104950000000001 Cl
   0.6989170000000000    0.2436480000000000    0.9871310000000001 Cl
   0.2490430000000000    0.7948819999999999    0.5134600000000001 Cl
   0.2418610000000000    0.3354370000000000    0.0086230000000000 Cl
   0.7967949999999999    0.8044760000000000    0.5015120000000001 Cl
   0.9884849999999999    0.0199050000000000    0.2016560000000000 Cl
   0.4654710000000000    0.4812250000000000    0.7205440000000000 Cl
   0.4797800000000000    0.5044720000000000    0.2999360000000000 Cl
   0.0147929999999999    0.0295249999999999    0.7797590000000001 Cl
