Cs2 K1 Pd1 Cl6
1.0
  -1.9826029667280882    6.2013010148655878    3.5834327805158654
   6.5118380215368221    0.0000000000000000    3.5975986910251763
   0.0000000000000000    0.0000000000000000   -7.6830737750000004
Cl Cs K Pd
6 2 1 1
direct
   0.7321590000000001    0.7306920000000001    0.4634400000000000 Cl
   0.6796584999999999    0.2428930000000000    0.9981205000000000 Cl
   0.3205335000000000    0.7572025000000000    0.0015029999999998 Cl
   0.2679640000000000    0.2694940000000000    0.5363529999999999 Cl
   0.2434120000000000    0.3202249999999999    0.0001469999999999 Cl
   0.7567515000000000    0.6798874999999999    0.9996829999999999 Cl
   0.7500855000000000    0.2499165000000000    0.4997879999999999 Cs
   0.2501385000000000    0.7504079999999999    0.4999014999999998 Cs
   0.0000855000000000    0.0000185000000000    0.9999009999999999 K
   0.5000705000000001    0.5000910000000001    0.9999085000000000 Pd
