Cs4 Ni2 Pt2 Cl12
1.0
  -5.9455579971264800    0.0000000000000000    4.2918610321621982
   1.6598604676338558   -8.2315399853220175    3.0135947624333084
   5.9455579971264800    0.0000000000000000    8.2901753178378002
Cs Ni Pt Cl
4 2 2 12
direct
   0.9719230000000000    0.2514470000000000    0.2847150000000001 Cs
   0.5281129999999999    0.2114559999999999    0.6702330000000001 Cs
   0.5534880000000000    0.9261730000000000    0.1927980000000001 Cs
   0.9862120000000001    0.6213400000000000    0.7927680000000001 Cs
   0.0931890000000000    0.8824520000000000    0.0424920000000000 Ni
   0.4348870000000000    0.8036399999999999    0.5939520000000001 Ni
   0.4565910000000001    0.4846980000000000    0.0372250000000000 Pt
   0.0342260000000001    0.5937300000000000    0.4424790000000001 Pt
   0.2031280000000001    0.1252890000000000    0.9681880000000002 Cl
   0.7565630000000000    0.5544830000000001    0.3674610000000000 Cl
   0.6677290000000000    0.3374460000000000    0.9651220000000001 Cl
   0.2021390000000000    0.9745460000000000    0.5786840000000001 Cl
   0.2391000000000001    0.6222380000000001    0.1203700000000000 Cl
   0.6944379999999999    0.9237930000000000    0.5255050000000001 Cl
   0.8336239999999999    0.9043800000000000    0.9304860000000001 Cl
   0.3272109999999999    0.6158260000000000    0.5182450000000000 Cl
   0.0359810000000000    0.8559099999999999    0.2717210000000000 Cl
   0.4874220000000001    0.7128780000000000    0.8336800000000002 Cl
   0.4527260000000000    0.2780210000000000    0.2543110000000000 Cl
   0.0299740000000001    0.3417970000000000    0.6150320000000001 Cl
