Cs2 Sr1 Cu1 Cl6
1.0
  -1.8097517592915908    6.1156114524234599   -3.3975926389135558
   6.3794661714268885    0.0000000000000000   -3.3981698756615706
   0.0000000000000000    0.0000000000000000   -7.6780891650000003
Cl Cs Cu Sr
6 2 1 1
direct
   0.7443730000000000    0.8134755000000000    0.0005080000000000 Cl
   0.8172820000000001    0.2571804999999999    0.0005110000000000 Cl
   0.1871625000000000    0.7391180000000001    0.0017980000000000 Cl
   0.2618845000000000    0.1847680000000000    0.9996389999999999 Cl
   0.2532450000000000    0.2516280000000000    0.4943800000000000 Cl
   0.7454294999999999    0.7445079999999999    0.5102810000000000 Cl
   0.7503700000000000    0.2487475000000000    0.5013600000000001 Cs
   0.2501729999999999    0.7487924999999999    0.5013390000000002 Cs
   0.0055295000000000    0.0004059999999999    0.9974710000000000 Cu
   0.5019940000000001    0.4985215000000000    0.0018010000000002 Sr
