Cs4 Tl2 B2 Cl12
1.0
  -2.7773824830769507    5.9972586737147600   -0.2312010915945676
  -7.7846199794256172    0.0000000000000000    5.4592716654495046
   5.0072374963486670    5.9972586737147600    9.1989571829559260
Cs Tl B Cl
4 2 2 12
direct
   0.6457650000000000    0.9851950000000000    0.1468670000000001 Cs
   0.0707620000000000    0.5413510000000000    0.7913000000000001 Cs
   0.8530430000000000    0.5144390000000001    0.3537890000000000 Cs
   0.4285340000000000    0.9581140000000001    0.7092790000000001 Cs
   0.4580139999999999    0.5437300000000000    0.0575910000000001 Tl
   0.0411720000000000    0.9561860000000001    0.4428770000000001 Tl
   0.1271620000000000    0.1489510000000001    0.0241320000000001 B
   0.3722860000000000    0.3504930000000001    0.4765120000000000 B
   0.8892300000000000    0.2318930000000000    0.9586440000000002 Cl
   0.2819280000000000    0.5574710000000000    0.4890030000000000 Cl
   0.8349259999999999    0.6243400000000001    0.0783410000000000 Cl
   0.1428430000000000    0.2800890000000000    0.5520480000000001 Cl
   0.3562559999999999    0.2194580000000000    0.9481680000000001 Cl
   0.6646010000000000    0.8754660000000000    0.4219340000000000 Cl
   0.2177630000000000    0.9419260000000000    0.0115790000000000 Cl
   0.6094279999999999    0.2672390000000001    0.5426020000000000 Cl
   0.0509020000000000    0.1918530000000001    0.1784360000000001 Cl
   0.5296310000000000    0.6000050000000001    0.8225440000000001 Cl
   0.4495629999999999    0.3076320000000000    0.3221080000000000 Cl
   0.9697929999999999    0.8997920000000000    0.6778240000000001 Cl
