Cs2 In1 Ag1 Cl6
1.0
   4.2776829643802721    6.0515271917501936   -0.0016718563894846
  -0.0000000000000000   -0.0000000000000000    7.4105954799999996
   2.1414909662287598   -6.0515271917501936   -3.7040699793245038
Ag Cl Cs In
1 6 2 1
direct
   0.0000590000000000    0.9996490000000000    0.9999100000000000 Ag
   0.7420519999999998    0.2566000000000000    0.9993789999999998 Cl
   0.2578219999999999    0.2571190000000002    0.5154370000000001 Cl
   0.7425075000000000    0.7410155000000000    0.4841319999999999 Cl
   0.2580755000000000    0.7416515000000000    0.0000990000000000 Cl
   0.2578340000000000    0.2568520000000001    0.9997150000000000 Cl
   0.7424989999999999    0.7413495000000000    0.9997864999999999 Cl
   0.2502155000000000    0.7485984999999999    0.4996480000000001 Cs
   0.7502044999999998    0.2486010000000000    0.4996134999999998 Cs
   0.5001220000000000    0.4991885000000001    0.9997894999999999 In
