Cs4 K2 As2 Cl12
1.0
  -6.6628431593388324    0.0000000000000000    3.8174078811219165
  -2.2188601363563278    6.3085982634638311   -3.8753465612003821
  -4.4439830229825041   -6.3085982634638311   -7.7335355976777009
Cs K As Cl
4 2 2 12
direct
   0.9718059999999999    0.5039330000000000    0.7484830000000000 Cs
   0.5232239999999999    0.0050389999999998    0.2494040000000000 Cs
   0.4711489999999998    0.9950490000000000    0.7505160000000000 Cs
   0.0240719999999999    0.4952719999999999    0.2495790000000000 Cs
   0.4969210000000001    0.4998910000000000    0.9994499999999999 K
   0.9961989999999999    0.0002320000000000    0.4996780000000000 K
   0.9967500000000000    0.9998089999999999    0.9997180000000000 As
   0.4964239999999999    0.5001139999999999    0.4995440000000000 As
   0.1957340000000000    0.7463190000000000    0.9750770000000001 Cl
   0.7523259999999999    0.3025570000000000    0.4795400000000000 Cl
   0.7404630000000000    0.8027710000000000    0.9799690000000000 Cl
   0.2959589999999999    0.2475999999999999    0.4751110000000000 Cl
   0.2533189999999998    0.1969569999999999    0.0194850000000000 Cl
   0.6961430000000000    0.7529370000000000    0.5243600000000000 Cl
   0.7974319999999998    0.2531800000000000    0.0242740000000000 Cl
   0.2406159999999999    0.6977370000000001    0.5193220000000001 Cl
   0.9962329999999999    0.0440220000000000    0.7731620000000000 Cl
   0.4977099999999998    0.5443959999999999    0.2729900000000000 Cl
   0.4944749999999998    0.4553729999999999    0.7261580000000001 Cl
   0.9968849999999997    0.9554750000000000    0.2262960000000001 Cl
