Cs2 Sc1 Ag1 Cl6
1.0
   6.3696745497482468   -0.0000000000000000   -3.6784823203279466
   4.2418358059594636    6.0112914267176540   -0.0009489879066402
   6.3696745497482468   -0.0000000000000000    3.6817797946720536
Ag Cl Cs Sc
1 6 2 1
direct
   0.9998655000000000    0.9999545000000001    0.0000265000000000 Ag
   0.7369129999999999    0.7375755000000001    0.2605055000000001 Cl
   0.2600994999999999    0.7365189999999999    0.2612110000000001 Cl
   0.7363655000000000    0.2605890000000000    0.7384310000000001 Cl
   0.2595105000000000    0.2613450000000000    0.7375260000000001 Cl
   0.7358830000000000    0.2604720000000000    0.2615700000000001 Cl
   0.2589219999999999    0.7381785000000000    0.7378605000000000 Cl
   0.7485189999999999    0.7494335000000000    0.7498025000000000 Cs
   0.2485279999999999    0.2493390000000000    0.2497800000000000 Cs
   0.4985485000000000    0.4994025000000000    0.4997455000000001 Sc
