Cs2 Zn1 Hg1 Cl6
1.0
   4.2323778627783524    6.0329998383131000   -0.0974163374413495
   2.1847360549915633   -6.0329998383131000   -3.6455496031730892
  -6.4171139177699157   -0.0000000000000000   -3.6443220943855610
Cl Cs Hg Zn
6 2 1 1
direct
   0.4436055000000001    0.7196835000000001    0.7192000000000002 Cl
   0.9953610000000003    0.2693885000000001    0.7191125000000003 Cl
   0.9952530000000002    0.7194225000000001    0.2690875000000000 Cl
   0.5433800000000002    0.2684785000000001    0.2680755000000002 Cl
   0.9976249999999999    0.7642114999999999    0.7638725000000000 Cl
   0.9937230000000000    0.2256265000000000    0.2251295000000001 Cl
   0.4961650000000000    0.7450559999999999    0.2448270000000000 Cs
   0.4961605000000001    0.2457650000000001    0.7441365000000000 Cs
   0.9910875000000003    0.9924755000000002    0.9920930000000004 Hg
   0.9909780000000002    0.4916905000000002    0.4915805000000002 Zn
