Cs2 Hg1 Sb1 Cl6
1.0
   0.0000000000000000    5.5870889999999997    5.5870889999999997
   5.5870889999999997    0.0000000000000000    5.5870889999999997
   5.5870889999999997    5.5870889999999997    0.0000000000000000
Cs Hg Sb Cl
2 1 1 6
direct
   0.7500000000000000    0.7500000000000000    0.7500000000000000 Cs
   0.2500000000000000    0.2500000000000000    0.2500000000000000 Cs
   0.5000000000000000    0.5000000000000000    0.5000000000000000 Hg
   0.0000000000000000    0.0000000000000000    0.0000000000000000 Sb
   0.7634780000000000    0.2365220000000000    0.2365220000000000 Cl
   0.2365220000000000    0.2365220000000000    0.7634780000000000 Cl
   0.2365220000000000    0.7634780000000000    0.7634780000000000 Cl
   0.2365220000000000    0.7634780000000000    0.2365220000000000 Cl
   0.7634780000000000    0.2365220000000000    0.7634780000000000 Cl
   0.7634780000000000    0.7634780000000000    0.2365220000000000 Cl
