Cs2 Cu1 Bi1 Cl6
1.0
   0.0000000000000000    5.3151780000000004    5.3151780000000004
   5.3151780000000004    0.0000000000000000    5.3151780000000004
   5.3151780000000004    5.3151780000000004    0.0000000000000000
Cs Cu Bi Cl
2 1 1 6
direct
   0.7500000000000000    0.7500000000000000    0.7500000000000000 Cs
   0.2500000000000000    0.2500000000000000    0.2500000000000000 Cs
   0.5000000000000000    0.5000000000000000    0.5000000000000000 Cu
   0.0000000000000000    0.0000000000000000    0.0000000000000000 Bi
   0.7408650000000000    0.2591350000000000    0.2591350000000000 Cl
   0.2591350000000000    0.2591350000000000    0.7408650000000000 Cl
   0.2591350000000000    0.7408650000000000    0.7408650000000000 Cl
   0.2591350000000000    0.7408650000000000    0.2591350000000000 Cl
   0.7408650000000000    0.2591350000000000    0.7408650000000000 Cl
   0.7408650000000000    0.7408650000000000    0.2591350000000000 Cl
