Cs2 Rb1 Co1 Cl6
1.0
   6.5093436463901684   -0.0000000000000000   -3.7537148582640762
   4.3314406625191557    6.1556129592719753    0.0055740336204009
   6.5093436463901684   -0.0000000000000000    3.7833314117359240
Cl Co Cs Rb
6 1 2 1
direct
   0.7912425000000001    0.7851095000000000    0.2104775000000000 Cl
   0.2175684999999999    0.7894190000000001    0.2040790000000000 Cl
   0.7862565000000001    0.2094270000000000    0.7860180000000000 Cl
   0.2125920000000000    0.2130170000000000    0.7807330000000000 Cl
   0.7911295000000000    0.2112925000000000    0.2075265000000000 Cl
   0.2133520000000000    0.7868685000000000    0.7831245000000000 Cl
   0.0013674999999999    0.9997365000000000    0.9947365000000001 Co
   0.7537929999999999    0.7482435000000002    0.7469345000000001 Cs
   0.2538704999999999    0.2481235000000000    0.2465345000000000 Cs
   0.5020914999999999    0.4990225000000001    0.4958055000000000 Rb
