Cs4 Na2 Au2 Cl12
1.0
   1.6827776508579448   -6.0884172673843526    3.2752171857565369
   6.3388204246755935   -0.0000000000000000   -3.2538955893482031
   4.6560427738176484    6.0884172673843526    8.9501913948952598
Cs Na Au Cl
4 2 2 12
direct
   0.4956830000000001    0.0016290000000000    0.2468900000000001 Cs
   0.0052120000000001    0.5022540000000000    0.7522690000000001 Cs
   0.9946090000000001    0.5017320000000000    0.2471860000000000 Cs
   0.5068480000000001    0.0036049999999999    0.7521460000000001 Cs
   0.4999540000000002    0.5012849999999999    0.9994990000000002 Na
   0.0005210000000000    0.0011349999999999    0.4997880000000000 Na
   0.0000770000000002    0.0005809999999999    0.9997010000000002 Au
   0.5002759999999999    0.5010770000000000    0.4996160000000001 Au
   0.1920500000000001    0.7430290000000001    0.0034639999999999 Cl
   0.7688160000000002    0.3237189999999999    0.5047540000000001 Cl
   0.2584560000000002    0.1919889999999999    0.9960200000000002 Cl
   0.6773970000000000    0.7695429999999999    0.4962630000000001 Cl
   0.7419309999999999    0.8090809999999999    0.0036610000000000 Cl
   0.3231920000000001    0.2327649999999998    0.5022420000000001 Cl
   0.8078200000000002    0.2580859999999998    0.9959090000000002 Cl
   0.2313910000000001    0.6779119999999998    0.4951110000000001 Cl
   0.9974310000000001    0.0039210000000000    0.2790730000000001 Cl
   0.5026340000000001    0.5058839999999998    0.7793400000000001 Cl
   0.4958910000000001    0.4999160000000000    0.2197130000000000 Cl
   0.0056880000000001    0.0002809999999998    0.7204770000000001 Cl
