Cs4 Rb2 As2 Cl12
1.0
  -2.2686273426967278    6.3293191111394789   -3.8816127157949381
  -6.8294140226560822    0.0000000000000000    3.9802877714529123
   4.5607866799593548    6.3293191111394789    7.8804944127521503
Cs Rb As Cl
4 2 2 12
direct
   0.4880270000000000    0.0457470000000000    0.2532000000000000 Cs
   0.9864519999999999    0.4495210000000001    0.7535170000000000 Cs
   0.0119260000000001    0.5441300000000001    0.2505590000000000 Cs
   0.5113889999999999    0.9508770000000001    0.7495350000000001 Cs
   0.4993290000000000    0.4973450000000000    0.0011760000000000 Rb
   0.9992799999999998    0.9975160000000001    0.5018610000000001 Rb
   0.9996990000000000    0.9969880000000000    0.0021320000000000 As
   0.4993379999999999    0.4986570000000001    0.5011930000000000 As
   0.7385229999999998    0.1787930000000002    0.9692560000000001 Cl
   0.3169710000000000    0.7560110000000001    0.4650860000000000 Cl
   0.8206709999999999    0.7373240000000000    0.9691850000000000 Cl
   0.2417219999999999    0.3127110000000000    0.4692520000000000 Cl
   0.1798290000000000    0.2565270000000001    0.0352080000000000 Cl
   0.7563169999999999    0.6840030000000004    0.5351490000000001 Cl
   0.2587120000000000    0.8145080000000000    0.0358810000000000 Cl
   0.6830309999999999    0.2421630000000000    0.5360720000000000 Cl
   0.9380740000000000    0.9882530000000000    0.2223840000000000 Cl
   0.4369590000000000    0.5088560000000001    0.7217270000000001 Cl
   0.5624560000000000    0.4888460000000002    0.2805360000000001 Cl
   0.0624669999999999    0.0071540000000002    0.7811390000000001 Cl
