Cs4 V2 Hg2 Cl12
1.0
  -6.2113167614825553    0.0000000000000000    3.4987326483428807
   2.1873853106192893   -7.4678494804703615    3.6303278848188274
   4.0239314508632660    7.4678494804703615    6.7988935968382922
Cs V Hg Cl
4 2 2 12
direct
   0.0002080000000000    0.4748419999999999    0.2859150000000000 Cs
   0.5075540000000001    0.0493539999999999    0.6977390000000000 Cs
   0.5000149999999999    0.0253590000000000    0.2124740000000000 Cs
   0.9900419999999999    0.4558110000000000    0.8011810000000001 Cs
   0.4919809999999999    0.4575630000000001    0.0400650000000000 V
   0.0060050000000000    0.0459030000000000    0.4585040000000000 V
   0.9618709999999998    0.9069649999999998    0.9302730000000000 Hg
   0.5387240000000000    0.5967589999999998    0.5683180000000000 Hg
   0.2622840000000000    0.2543009999999998    0.9971090000000000 Cl
   0.7767780000000000    0.8514879999999999    0.4205220000000000 Cl
   0.7219320000000000    0.2572329999999999    0.9994070000000000 Cl
   0.2370700000000000    0.8552929999999999    0.4273220000000000 Cl
   0.2624550000000000    0.6495200000000001    0.0750260000000000 Cl
   0.7741650000000000    0.2448749999999999    0.4956360000000000 Cl
   0.7232810000000000    0.6498110000000000    0.0792450000000000 Cl
   0.2337920000000000    0.2508329999999999    0.5001190000000000 Cl
   0.0041470000000000    0.0491960000000000    0.2474330000000000 Cl
   0.4870099999999999    0.4569919999999998    0.8264560000000000 Cl
   0.4957489999999999    0.4487810000000000    0.2500130000000000 Cl
   0.0103059999999999    0.0508949999999997    0.6729200000000000 Cl
