Cs4 Sr2 Sn2 Cl12
1.0
  -6.7952631606245779    0.0000000000000000    3.8585186469472834
  -2.2777521578487754    6.4740551571455711   -4.0063838139444501
  -4.5175110027758025   -6.4740551571455711   -7.8874501691082672
Cs Sr Sn Cl
4 2 2 12
direct
   0.0114420000000000    0.5479670000000000    0.7496600000000000 Cs
   0.5117349999999999    0.9570080000000000    0.2497410000000000 Cs
   0.4881330000000002    0.0480169999999999    0.7485359999999999 Cs
   0.9880820000000001    0.4568059999999998    0.2488629999999998 Cs
   0.5002899999999999    0.5032350000000000    0.9993100000000000 Sr
   0.0003480000000000    0.0017340000000000    0.4993249999999999 Sr
   0.0004260000000000    0.0032490000000000    0.9993690000000000 Sn
   0.5001200000000001    0.5016699999999999    0.4991380000000000 Sn
   0.2882659999999998    0.7942170000000001    0.9650409999999999 Cl
   0.7098469999999999    0.2155010000000001    0.4634929999999999 Cl
   0.7934270000000001    0.7152229999999999    0.0324819999999999 Cl
   0.2130710000000000    0.2914980000000000    0.5346970000000000 Cl
   0.2100369999999998    0.2887560000000000    0.9635049999999999 Cl
   0.7877779999999998    0.7115730000000000    0.4651650000000001 Cl
   0.7130249999999999    0.2135540000000000    0.0351740000000000 Cl
   0.2932590000000000    0.7895160000000000    0.5323300000000000 Cl
   0.9347360000000000    0.9922920000000000    0.7517190000000000 Cl
   0.4341080000000002    0.5139149999999999    0.2515429999999999 Cl
   0.5648369999999999    0.4903330000000000    0.7471439999999998 Cl
   0.0660290000000000    0.0143450000000000    0.2474249999999999 Cl
