Cs4 Al2 Au2 Cl12
1.0
   6.3508416442283906   -0.0000000000000000   -2.8720505992267826
  -1.8681926467442576    7.4025607303479850   -5.0066622600755428
   4.4826489974841328    7.4025607303479850    7.7029649306976751
Cs Al Au Cl
4 2 2 12
direct
   0.9335100000000000    0.5588980000000000    0.1514330000000000 Cs
   0.5005080000000000    0.8699149999999999    0.7986430000000001 Cs
   0.4772200000000000    0.1043310000000000    0.2831840000000000 Cs
   0.9856130000000000    0.4012700000000000    0.6660220000000000 Cs
   0.0296700000000000    0.0230110000000000    0.0550210000000000 Al
   0.5035770000000002    0.5296520000000000    0.4398880000000000 Al
   0.3735170000000000    0.4780689999999999    0.9481140000000001 Au
   0.1083380000000001    0.9513010000000000    0.5902260000000000 Au
   0.7620870000000001    0.9151889999999999    0.0523430000000000 Cl
   0.7331160000000000    0.3683030000000000    0.4112480000000001 Cl
   0.1337270000000000    0.6177000000000000    0.8718450000000000 Cl
   0.3355670000000000    0.1215530000000001    0.5819560000000000 Cl
   0.6130830000000000    0.3405430000000000    0.0236950000000000 Cl
   0.8827220000000000    0.7819039999999999    0.5995680000000000 Cl
   0.2502440000000000    0.8639620000000000    0.1014020000000000 Cl
   0.5835680000000000    0.7284680000000000    0.3432130000000000 Cl
   0.0003470000000000    0.1723980000000000    0.1905660000000000 Cl
   0.4613320000000000    0.5509430000000000    0.6223610000000001 Cl
   0.2476970000000000    0.4527920000000000    0.3761340000000001 Cl
   0.1110880000000000    0.1296850000000001    0.8900020000000000 Cl
