Cs4 Y2 Cu2 Cl12
1.0
   2.6671477236045069   -5.9814160813360964    4.0517074715874246
   6.7177505817064205   -0.0000000000000000   -4.4333591201743809
   4.0506028581019136    5.9814160813360964    6.1880259082381937
Cs Y Cu Cl
4 2 2 12
direct
   0.5028130000000000    0.0174160000000000    0.2444390000000000 Cs
   0.0027290000000001    0.4843219999999999    0.7439630000000000 Cs
   0.0024480000000000    0.4793370000000000    0.2562900000000000 Cs
   0.5024810000000001    0.0135329999999999    0.7562040000000000 Cs
   0.5027810000000000    0.4984540000000000    0.0011160000000000 Y
   0.0033810000000000    0.9986990000000000    0.5006610000000000 Y
   0.0036450000000000    0.8890050000000000    0.0019370000000000 Cu
   0.5035550000000000    0.6043520000000000    0.5012270000000000 Cu
   0.2635250000000000    0.7363619999999998    0.0026690000000001 Cl
   0.7646430000000001    0.2244979999999999    0.5018390000000000 Cl
   0.2635109999999999    0.2732500000000000    0.9986940000000000 Cl
   0.7620310000000000    0.7619440000000000    0.4970360000000001 Cl
   0.7437300000000000    0.7355599999999999    0.0022599999999999 Cl
   0.2418690000000000    0.2251480000000000    0.5028560000000000 Cl
   0.7412310000000001    0.2725719999999999    0.9976410000000000 Cl
   0.2444480000000001    0.7619699999999999    0.4981910000000001 Cl
   0.0048820000000000    0.0042660000000000    0.2228790000000000 Cl
   0.5025090000000001    0.4979290000000000    0.7234760000000000 Cl
   0.5032400000000000    0.4939419999999999    0.2784260000000000 Cl
   0.0031850000000001    0.9957579999999999    0.7779410000000001 Cl
