Cs2 Ta1 Ag1 Cl6
1.0
  -6.3673614661212747    0.0000000000000000   -3.6655589212951503
   0.0000000000000000    0.0000000000000000    7.3479901500000002
   4.2402503420714908    6.0017852172559145   -0.0109745569826210
Ag Cl Cs Ta
1 6 2 1
direct
   0.0000420000000000    0.9999610000000000    0.0002540000000000 Ag
   0.0011940000000001    0.2651730000000000    0.7384820000000000 Cl
   0.4720674999999999    0.7362569999999999    0.7388685000000000 Cl
   0.5286255000000001    0.2630320000000000    0.2658645000000000 Cl
   0.0002690000000000    0.7357945000000000    0.2656205000000000 Cl
   0.0026250000000000    0.2577469999999999    0.2613350000000000 Cl
   0.9985955000000000    0.7407740000000000    0.7433055000000000 Cl
   0.5003580000000001    0.2496860000000000    0.7523590000000000 Cs
   0.5005555000000002    0.7499164999999999    0.2524430000000000 Cs
   0.0003060000000001    0.4999265000000001    0.5013835000000000 Ta
