Cs2 Li1 Tl1 Cl6
1.0
  -4.2409727564775750   -6.0191750961577526    0.0000651698721583
   0.0000000000000000    0.0000000000000000    7.3723140000000003
  -6.3899892510320297    0.0000000000000000    3.6848548825462886
Cl Cs Li Tl
6 2 1 1
direct
   0.2520430000000000    0.2490850000000000    0.0000885000000002 Cl
   0.2534620000000001    0.2489119999999999    0.5033425000000000 Cl
   0.7564195000000000    0.7521184999999999    0.4975405000000001 Cl
   0.7566195000000000    0.7529125000000001    0.0007695000000001 Cl
   0.7566030000000000    0.2480920000000000    0.0002655000000001 Cl
   0.2524710000000001    0.7532200000000000    0.0009350000000000 Cl
   0.2544470000000001    0.7511220000000001    0.5003850000000001 Cs
   0.7544750000000000    0.2510990000000000    0.5003320000000002 Cs
   0.0039895000000000    0.0010874999999999    0.0002830000000004 Li
   0.5044800000000000    0.5007740000000001    0.0004160000000002 Tl
