Cs2 Cu1 Pb1 Cl6
1.0
  -1.8801297610966734    6.0586900403328467   -3.4545635109993018
  -6.3434532854290966    0.0000000000000000    3.4562656141349763
   6.3434532854290966    0.0000000000000000    4.0978468458650230
Cl Cs Cu Pb
6 2 1 1
direct
   0.7728170000000000    0.2321810000000000    0.0005970000000001 Cl
   0.7724880000000000    0.7782675000000000    0.0034029999999999 Cl
   0.2264095000000000    0.2277595000000002    0.9959670000000002 Cl
   0.2258695000000000    0.7742570000000000    0.9997730000000000 Cl
   0.2466100000000000    0.2495500000000000    0.4919600000000000 Cl
   0.7415645000000000    0.7450900000000001    0.4902990000000002 Cl
   0.7493335000000000    0.2509445000000001    0.5001500000000000 Cs
   0.2479270000000000    0.7520400000000000    0.4998480000000001 Cs
   0.0160175000000000    0.0198335000000000    0.0314200000000000 Cu
   0.5007135000000000    0.5044534999999999    0.0025170000000000 Pb
