Cs2 K1 Ni1 Cl6
1.0
  -0.0000000000000000   -0.0000000000000000    7.3573134900000001
   4.1204654279845485    6.1033555982165453   -0.0165780759290746
  -6.5738575462205260   -0.0000000000000000   -3.6647966060825405
Cl Cs K Ni
6 2 1 1
direct
   0.2843345000000001    0.7050290000000001    0.9986095000000000 Cl
   0.7280940000000000    0.7217930000000000    0.4551170000000000 Cl
   0.2743570000000001    0.2636245000000000    0.5456815000000000 Cl
   0.7147595000000001    0.2804215000000000    0.0016270000000000 Cl
   0.2872554999999999    0.2785890000000000    0.0025095000000000 Cl
   0.7142065000000000    0.7074469999999999    0.9989614999999999 Cl
   0.2517679999999999    0.7428315000000000    0.5005095000000001 Cs
   0.7518349999999999    0.2430720000000000    0.5003989999999999 Cs
   0.0002515000000000    0.9935170000000000    0.0005065000000000 K
   0.4993440000000000    0.4931750000000000    0.0001930000000000 Ni
