Cs2 Mn1 Sn1 Cl6
1.0
   2.1664830824901800   -6.1267264874029790   -3.7484813169113163
  -0.0000000000000000   -0.0000000000000000   -7.5021136149999998
   6.4995932236866079   -0.0000000000000000   -3.7476947794224551
Cl Cs Mn Sn
6 2 1 1
direct
   0.2351965000000001    0.7578895000000000    0.7631675000000000 Cl
   0.2353315000000000    0.7615045000000000    0.2349300000000000 Cl
   0.7614300000000001    0.2330910000000000    0.7618054999999999 Cl
   0.7626035000000001    0.2337505000000000    0.2352704999999999 Cl
   0.7607070000000000    0.7610650000000000    0.2366074999999999 Cl
   0.2351780000000000    0.2335619999999999    0.7611585000000000 Cl
   0.2475255000000001    0.2476784999999998    0.2484390000000000 Cs
   0.7475070000000000    0.7477380000000000    0.7484019999999999 Cs
   0.9985635000000000    0.9961735000000000    0.9986305000000000 Mn
   0.4983445000000000    0.4964495000000000    0.4984279999999999 Sn
