Cs2 Tl1 Ag1 Cl6
1.0
   2.1468568975175581   -6.1152290605519761    3.7245985724650859
  -6.4855812085917810   -0.0000000000000000    3.7314632194637247
  -0.0000000000000000   -0.0000000000000000   -7.4971092349999999
Ag Cl Cs Tl
1 6 2 1
direct
   0.9967305000000000    0.0002179999999999    0.9966340000000000 Ag
   0.2452245000000001    0.2481860000000000    0.9987190000000000 Cl
   0.2436900000000000    0.7511574999999999    0.9955780000000001 Cl
   0.7491590000000000    0.2478864999999999    0.9971409999999999 Cl
   0.7482110000000000    0.7507295000000000    0.9945810000000000 Cl
   0.7468945000000000    0.7498885000000000    0.4954230000000001 Cl
   0.2469760000000000    0.2486720000000000    0.4979430000000001 Cl
   0.2464610000000002    0.7493425000000000    0.4966290000000001 Cs
   0.7464510000000000    0.2494015000000001    0.4966090000000000 Cs
   0.4965640000000000    0.4995815000000000    0.9966540000000000 Tl
