Cs2 Mg1 Mn1 Cl6
1.0
   4.1383916302111361    5.8548140217984503   -0.0005359094098258
  -0.0000000000000000   -0.0000000000000000    7.1696393499999997
   2.0722022466578514   -5.8548140217984503   -3.5846487641764289
Cl Cs Mg Mn
6 2 1 1
direct
   0.7537519999999999    0.2522805000000000    0.0049324999999999 Cl
   0.2511925000000001    0.2513130000000000    0.5018134999999999 Cl
   0.7536820000000000    0.7534990000000001    0.5067350000000000 Cl
   0.2517670000000000    0.7531445000000000    0.0051884999999999 Cl
   0.2523500000000000    0.2516435000000000    0.0051615000000001 Cl
   0.7530574999999999    0.7536825000000000    0.0049960000000000 Cl
   0.2514215000000000    0.7514140000000000    0.5025284999999999 Cs
   0.7514430000000000    0.2513779999999999    0.5025280000000001 Cs
   0.0015435000000001    0.0015074999999999    0.0028809999999999 Mg
   0.5018409999999999    0.5018175000000000    0.0035615000000000 Mn
