Cs2 Cd1 Co1 Cl6
1.0
   6.2452008588105778   -0.0000000000000000   -3.6009793015477491
   4.1592099212811817    5.8907149045074405    0.0030707837640653
   6.2452008588105778   -0.0000000000000000    3.6169465784522510
Cd Cl Co Cs
1 6 1 2
direct
   0.9961024999999999    0.9991335000000000    0.0032085000000002 Cd
   0.7354089999999999    0.7420709999999999    0.2617550000000002 Cl
   0.2552795000000000    0.7399564999999999    0.2619155000000002 Cl
   0.7376679999999999    0.2576810000000000    0.7443570000000000 Cl
   0.2564930000000000    0.2563520000000000    0.7448280000000000 Cl
   0.7384030000000001    0.2565605000000000    0.2625824999999999 Cl
   0.2557214999999999    0.7403060000000000    0.7448280000000000 Cl
   0.4959680000000001    0.4988344999999999    0.5027055000000000 Co
   0.7479300000000000    0.7480830000000001    0.7530780000000000 Cs
   0.2468380000000000    0.2492485000000000    0.2528715000000000 Cs
