Cs2 V1 Ge1 Cl6
1.0
   2.1028106886667408   -5.9524505632522464   -3.6420470466176620
  -6.3138535907976214   -0.0000000000000000   -3.6422641672914096
   4.2110429021308811    5.9524505632522464   -0.0073730410909283
Cl Cs Ge V
6 2 1 1
direct
   0.7455305000000000    0.7445754999999999    0.4895809999999999 Cl
   0.2601209999999999    0.7447754999999998    0.0040024999999998 Cl
   0.7461914999999999    0.2586845000000000    0.0036390000000000 Cl
   0.2609404999999999    0.2587429999999999    0.5176304999999999 Cl
   0.7460785000000001    0.7447955000000001    0.0037830000000001 Cl
   0.2604035000000001    0.2584755000000000    0.0038690000000001 Cl
   0.7534125000000000    0.2520884999999999    0.5045350000000000 Cs
   0.2530475000000001    0.7520600000000000    0.5045005000000001 Cs
   0.0047085000000000    0.0024945000000000    0.0055019999999999 Ge
   0.5048260000000000    0.5022880000000001    0.0051360000000000 V
