Cs4 Sr2 Ge2 Cl12
1.0
   2.2334165768843657   -6.2898908715443502    3.8377465109488251
   6.6854526926236604   -0.0000000000000000   -3.8726820752687483
   4.4520361157392951    6.2898908715443502    7.7489241237824258
Cs Sr Ge Cl
4 2 2 12
direct
   0.4751829999999999    0.0063350000000001    0.2489729999999999 Cs
   0.0190529999999998    0.5073690000000002    0.7509459999999998 Cs
   0.9745659999999999    0.4983530000000000    0.2518440000000000 Cs
   0.5194999999999999    0.9993470000000001    0.7508869999999999 Cs
   0.4976230000000000    0.5020780000000000    0.0004480000000000 Sr
   0.9979369999999999    0.0019580000000001    0.5007329999999999 Sr
   0.9978590000000001    0.0024000000000000    0.0007410000000000 Ge
   0.4970679999999998    0.5021690000000001    0.5005849999999998 Ge
   0.2654949999999999    0.7863750000000003    0.9755449999999999 Cl
   0.7135290000000000    0.2342940000000001    0.4757069999999999 Cl
   0.2134159999999998    0.2686470000000000    0.0240180000000000 Cl
   0.7654549999999998    0.7168500000000002    0.5240939999999998 Cl
   0.7809449999999998    0.7370500000000002    0.9800019999999998 Cl
   0.2288909999999999    0.2888840000000001    0.4799069999999999 Cl
   0.7314910000000000    0.2174700000000000    0.0240080000000000 Cl
   0.2835079999999998    0.7686640000000001    0.5241099999999999 Cl
   0.0018310000000000    0.9576260000000001    0.2419129999999999 Cl
   0.4937859999999998    0.4578050000000001    0.7416519999999999 Cl
   0.4975500000000000    0.5448379999999999    0.2592820000000000 Cl
   0.9935319999999997    0.0451780000000002    0.7597739999999997 Cl
