Cs2 K1 Al1 Cl6
1.0
   4.3321314307096763    6.1278281112847770    0.0013763549498762
  -2.1691240575049693    6.1278281112847770   -3.7500385665538265
  -2.1691240575049693    6.1278281112847770    3.7610610584461734
Al Cl Cs K
1 6 2 1
direct
   0.9980934999999997    0.0018670000000001    0.9970615000000000 Al
   0.7798029999999999    0.7816820000000000    0.2126670000000000 Cl
   0.2186705000000000    0.7848640000000000    0.7755645000000001 Cl
   0.7778489999999999    0.2183010000000000    0.2192550000000000 Cl
   0.2168490000000000    0.2216675000000000    0.7809810000000000 Cl
   0.2171235000000000    0.7810360000000000    0.2162305000000000 Cl
   0.7787184999999999    0.2230900000000000    0.7780225000000000 Cl
   0.2480555000000000    0.2515915000000001    0.2474315000000001 Cs
   0.7481709999999999    0.7515519999999999    0.7472400000000000 Cs
   0.4980769999999999    0.5024765000000000    0.4964050000000000 K
