Cs2 Na1 Pr1 Cl6
1.0
   0.0000000000000000    5.5610160000000004    5.5610160000000004
   5.5610160000000004    0.0000000000000000    5.5610160000000004
   5.5610160000000004    5.5610160000000004    0.0000000000000000
Cs Na Pr Cl
2 1 1 6
direct
   0.7500000000000000    0.7500000000000000    0.7500000000000000 Cs
   0.2500000000000000    0.2500000000000000    0.2500000000000000 Cs
   0.5000000000000000    0.5000000000000000    0.5000000000000000 Na
   0.0000000000000000    0.0000000000000000    0.0000000000000000 Pr
   0.7521280000000000    0.2478720000000000    0.2478720000000000 Cl
   0.2478720000000000    0.2478720000000000    0.7521280000000000 Cl
   0.2478720000000000    0.7521280000000000    0.7521280000000000 Cl
   0.2478720000000000    0.7521280000000000    0.2478720000000000 Cl
   0.7521280000000000    0.2478720000000000    0.7521280000000000 Cl
   0.7521280000000000    0.7521280000000000    0.2478720000000000 Cl
