Cs2 Ca1 Co1 Cl6
1.0
  -0.0000000000000000   -0.0000000000000000    7.2999267349999997
   6.3283415585278782   -0.0000000000000000   -3.6484609273210853
  -2.1044367488109463    5.9708173123142139   -3.6492788322423131
Ca Cl Co Cs
1 6 1 2
direct
   0.0000930000000000    0.0007745000000000    0.9999279999999999 Ca
   0.0040399999999999    0.7431035000000000    0.7383275000000000 Cl
   0.0001809999999998    0.2654645000000000    0.7377224999999999 Cl
   0.0011450000000000    0.7413700000000000    0.2635160000000000 Cl
   0.9978099999999999    0.2647645000000000    0.2599535000000000 Cl
   0.5248669999999999    0.2668750000000000    0.2617010000000000 Cl
   0.4759919999999998    0.7421530000000001    0.7375825000000000 Cl
   0.0003470000000000    0.5015845000000000    0.5000605000000000 Co
   0.5008340000000000    0.2545175000000000    0.7493540000000001 Cs
   0.5006359999999999    0.7536995000000000    0.2499800000000000 Cs
