Cs2 Ca1 Mg1 Cl6
1.0
  -6.3797518284822390    0.0000000000000000   -3.6806355215006628
  -2.1272919782418569    6.0177767845380163   -3.6795487807582381
   0.0000000000000000    0.0000000000000000   -7.3672366000000000
Ca Cl Cs Mg
1 6 2 1
direct
   0.0013535000000001    0.0002555000000000    0.9999955000000000 Ca
   0.2602975000000000    0.7412295000000000    0.7398655000000001 Cl
   0.7415490000000000    0.7407339999999999    0.2607000000000000 Cl
   0.2606035000000000    0.2601400000000000    0.7395624999999999 Cl
   0.7426970000000001    0.2601265000000000    0.2594890000000000 Cl
   0.7407865000000000    0.2608400000000000    0.7409545000000000 Cl
   0.2619765000000001    0.7411060000000000    0.2582634999999998 Cl
   0.7511620000000001    0.7506805000000001    0.7497050000000000 Cs
   0.2511080000000000    0.2507130000000000    0.2497350000000001 Cs
   0.5011365000000000    0.5004029999999999    0.4999374999999999 Mg
