Cs2 Cd1 Ge1 Cl6
1.0
   0.0000000000000000    0.0000000000000000   -7.4418101800000001
   6.4474148102996853    0.0000000000000000   -3.7181073797832682
   2.1484277622359929   -6.0798114954201106   -3.7205408577522565
Cd Cl Cs Ge
1 6 2 1
direct
   0.9985784999999999    0.9990080000000000    0.0005335000000000 Cd
   0.7492104999999999    0.7499285000000001    0.2499955000000000 Cl
   0.7497809999999998    0.2489749999999998    0.2496940000000002 Cl
   0.2483474999999999    0.7497914999999998    0.7507504999999999 Cl
   0.2486815000000000    0.2485625000000000    0.7507935000000000 Cl
   0.7495140000000000    0.2491220000000000    0.7506810000000000 Cl
   0.2485509999999999    0.7497389999999999    0.2497199999999999 Cl
   0.2482990000000000    0.2488680000000000    0.2504940000000000 Cs
   0.7483104999999999    0.7488665000000001    0.7504925000000000 Cs
   0.4986010000000000    0.4990545000000001    0.5004419999999999 Ge
