Cs2 Na1 Sc1 Cl6
1.0
  -0.0000000000000000   -0.0000000000000000    7.3573551650000004
  -2.1217535256249502    6.0138336700630362    3.6711931069055335
  -6.3780579839690432   -0.0000000000000000    3.6706355159167119
Cl Cs Na Sc
6 2 1 1
direct
   0.2595435000000000    0.7366094999999999    0.2615639999999999 Cl
   0.2605459999999998    0.7361260000000001    0.7375545000000000 Cl
   0.7356344999999999    0.2611654999999998    0.2604879999999999 Cl
   0.7369785000000000    0.2608334999999998    0.7361900000000000 Cl
   0.2606720000000000    0.2603510000000000    0.7363864999999999 Cl
   0.7358059999999998    0.7372210000000001    0.2609865000000000 Cl
   0.7487825000000000    0.7492715000000001    0.7494829999999999 Cs
   0.2487414999999999    0.2492334999999999    0.2493145000000000 Cs
   0.9987650000000000    0.9992170000000000    0.9993140000000000 Na
   0.4983544999999999    0.4988724999999999    0.4990040000000000 Sc
