Cs4 Rb2 Fe2 Cl12
1.0
  -6.6366101499210322    0.0000000000000000    3.7932874068650242
  -2.2215728907768897    6.3177048759028693   -3.8855514694196600
  -4.4150372591441425   -6.3177048759028693   -7.7187005237153148
Cs Rb Fe Cl
4 2 2 12
direct
   0.9778289999999999    0.5031660000000001    0.7490359999999999 Cs
   0.5282800000000000    0.0035520000000001    0.2489820000000000 Cs
   0.4787039999999999    0.9963640000000000    0.7516060000000000 Cs
   0.0276299999999998    0.4956330000000001    0.2513020000000000 Cs
   0.5020909999999998    0.4999820000000001    0.0002650000000001 Rb
   0.0023229999999999    0.0001130000000001    0.4998230000000000 Rb
   0.0020350000000000    0.0000400000000000    0.9996260000000000 Fe
   0.5013789999999999    0.5003720000000000    0.4999950000000000 Fe
   0.1931419999999999    0.7581470000000000    0.9751300000000001 Cl
   0.7488739999999999    0.3129590000000001    0.4809620000000000 Cl
   0.7560560000000001    0.8123930000000001    0.9806680000000000 Cl
   0.3124320000000000    0.2576210000000000    0.4753320000000000 Cl
   0.2488479999999998    0.1869830000000000    0.0195730000000000 Cl
   0.6934500000000001    0.7413760000000000    0.5252710000000000 Cl
   0.8107309999999999    0.2410870000000002    0.0246160000000001 Cl
   0.2551409999999999    0.6868310000000001    0.5194070000000001 Cl
   0.0012910000000000    0.0435090000000000    0.7831970000000000 Cl
   0.5045999999999998    0.5444110000000002    0.2837010000000001 Cl
   0.5005539999999999    0.4566760000000001    0.7169369999999999 Cl
   0.0044289999999999    0.9556780000000001    0.2164000000000000 Cl
