Cs2 Ba1 Cd1 Cl6
1.0
  -2.2200956812599317    6.3985073391940173   -3.7955802435135588
   6.7321580307223972    0.0000000000000000   -3.9362122570485405
  -4.5120623494624654   -6.3985073391940173   -0.2242314794379014
Ba Cd Cl Cs
1 1 6 2
direct
   0.0013979999999999    0.0006904999999999    0.0006249999999999 Ba
   0.5010860000000001    0.5005335000000000    0.9997210000000001 Cd
   0.6928639999999999    0.7989340000000000    0.0273450000000000 Cl
   0.7903865000000000    0.3262745000000000    0.0060399999999999 Cl
   0.2118325000000000    0.6744060000000001    0.9945039999999999 Cl
   0.3109215000000000    0.2022410000000000    0.9746450000000000 Cl
   0.7198804999999999    0.7169880000000000    0.4687310000000000 Cl
   0.2848114999999999    0.2844154999999999    0.5330990000000000 Cl
   0.2530180000000000    0.7413594999999999    0.5001630000000000 Cs
   0.7487840000000000    0.2599449999999999    0.5004409999999999 Cs
