Cs2 Tm1 Ag1 Cl6
1.0
   0.0000000000000000    5.4011030000000000    5.4011030000000000
   5.4011030000000000    0.0000000000000000    5.4011030000000000
   5.4011030000000000    5.4011030000000000    0.0000000000000000
Cs Tm Ag Cl
2 1 1 6
direct
   0.7500000000000000    0.7500000000000000    0.7500000000000000 Cs
   0.2500000000000000    0.2500000000000000    0.2500000000000000 Cs
   0.0000000000000000    0.0000000000000000    0.0000000000000000 Tm
   0.5000000000000000    0.5000000000000000    0.5000000000000000 Ag
   0.7582480000000000    0.2417520000000000    0.2417520000000000 Cl
   0.2417520000000000    0.2417520000000000    0.7582480000000000 Cl
   0.2417520000000000    0.7582480000000000    0.7582480000000000 Cl
   0.2417520000000000    0.7582480000000000    0.2417520000000000 Cl
   0.7582480000000000    0.2417520000000000    0.7582480000000000 Cl
   0.7582480000000000    0.7582480000000000    0.2417520000000000 Cl
