Cs2 Mn1 Hg1 Cl6
1.0
   6.3760550313770645   -0.0000000000000000    3.6173014299900386
  -4.2161288751779136   -6.0037719919216235    0.0959221306738858
  -0.0000000000000000   -0.0000000000000000   -7.3369754599999997
Cl Cs Hg Mn
6 2 1 1
direct
   0.9950825000000001    0.2610820000000000    0.7374955000000001 Cl
   0.5190880000000000    0.2607909999999999    0.2604629999999999 Cl
   0.4731175000000000    0.7384925000000000    0.7382230000000001 Cl
   0.9950635000000000    0.7375845000000000    0.2608180000000000 Cl
   0.9936510000000000    0.7452510000000000    0.7450990000000000 Cl
   0.9965340000000000    0.2517234999999999    0.2515005000000000 Cl
   0.4955150000000000    0.2487450000000000    0.7486420000000000 Cs
   0.4955065000000001    0.7488445000000000    0.2485619999999999 Cs
   0.9978620000000002    0.9993135000000000    0.9992105000000000 Hg
   0.9972580000000000    0.4988440000000000    0.4986950000000000 Mn
