Cs2 Tl1 Ir1 Cl6
1.0
  -0.0000000000000000   -0.0000000000000000    7.5320969099999999
   2.1727302682936327   -6.1535417229406963    3.7629592211562386
   6.5259177287830088   -0.0000000000000000    3.7643551022668738
Cl Cs Ir Tl
6 2 1 1
direct
   0.2223340000000001    0.2207079999999999    0.7771500000000000 Cl
   0.7793395000000001    0.2237800000000000    0.2171515000000000 Cl
   0.2216349999999999    0.7781680000000000    0.7790410000000000 Cl
   0.7784159999999999    0.7811570000000000    0.2192180000000000 Cl
   0.2193215000000000    0.7809325000000000    0.2203985000000000 Cl
   0.7811050000000000    0.2208539999999999    0.7752640000000000 Cl
   0.2511670000000000    0.2502720000000000    0.2486690000000000 Cs
   0.7508934999999999    0.7504240000000000    0.7488525000000000 Cs
   0.0002794999999999    0.0010570000000001    0.9978965000000001 Ir
   0.5004100000000000    0.5009839999999999    0.4980190000000000 Tl
