Cs2 B1 Au1 Cl6
1.0
   1.3958682789871015   -6.2354187809259738    2.9884159418761418
  -6.3956298673994194   -0.0000000000000000    2.9924610558990743
  -4.9997615884123174   -6.2354187809259738   -2.3710807322247849
Au B Cl Cs
1 1 6 2
direct
   0.9985595000000000    0.9977595000000002    0.0034989999999999 Au
   0.4991899999999999    0.4965734999999999    0.0028550000000001 B
   0.4214915000000000    0.4218795000000001    0.8476419999999999 Cl
   0.2690680000000001    0.5718979999999999    0.1599940000000000 Cl
   0.5757745000000001    0.2652240000000000    0.1573410000000000 Cl
   0.7302465000000000    0.7275000000000000    0.8464020000000001 Cl
   0.1672275000000000    0.1661480000000000    0.6647729999999999 Cl
   0.8289755000000001    0.8303610000000002    0.3420879999999998 Cl
   0.7490750000000000    0.2483570000000000    0.5034869999999999 Cs
   0.2496865000000000    0.7483435000000001    0.5030829999999999 Cs
