Cs2 Mn1 Pb1 Cl6
1.0
   0.0000000000000000    0.0000000000000000   -7.5530825349999997
  -6.5414136925697974    0.0000000000000000    3.7767030511166508
   4.3600918879450870    6.1715455056602346   -0.0002046084162535
Cl Cs Mn Pb
6 2 1 1
direct
   0.7636755000000000    0.9930619999999998    0.7636625000000000 Cl
   0.7708604999999999    0.5304049999999999    0.7701914999999999 Cl
   0.2312889999999999    0.4694544999999999    0.2329410000000000 Cl
   0.2399285000000000    0.0068955000000000    0.2404585000000000 Cl
   0.7659610000000000    0.9976050000000000    0.2369770000000000 Cl
   0.2375395000000001    0.0017080000000001    0.7695535000000001 Cl
   0.2522495000000001    0.5000475000000000    0.7519595000000001 Cs
   0.7521605000000000    0.4999435000000000    0.2519865000000001 Cs
   0.0006230000000000    0.9999930000000000    0.0035890000000000 Mn
   0.5009585000000001    0.0000090000000001    0.5031265000000000 Pb
