Cs2 Mn1 Fe1 Cl6
1.0
  -6.1746315033145303    0.0000000000000000    3.5491236842049880
  -2.0474926672967841    5.8252239133563295   -3.5549595086526966
   2.0474926672967841   -5.8252239133563295   -3.5844072813473038
Cl Cs Fe Mn
6 2 1 1
direct
   0.2448810000000001    0.7521690000000002    0.9971230000000002 Cl
   0.7538039999999999    0.7539515000000001    0.0000670000000002 Cl
   0.2453970000000001    0.2449770000000000    0.9981240000000000 Cl
   0.7544545000000000    0.2470420000000001    0.0011350000000001 Cl
   0.7477374999999999    0.7469275000000001    0.4948240000000000 Cl
   0.2515370000000001    0.2525035000000002    0.5036620000000002 Cl
   0.7488915000000000    0.2493685000000000    0.4991480000000000 Cs
   0.2502320000000000    0.7501290000000000    0.4992850000000001 Cs
   0.9991205000000000    0.9991835000000000    0.9989270000000000 Fe
   0.4991815000000001    0.4987449999999999    0.9995420000000000 Mn
