Cs2 Rb1 Mn1 Cl6
1.0
   0.0000000000000000    0.0000000000000000   -7.4411656349999999
   4.0378859527796491    6.2712052069521844    0.0079722707061540
   2.8544154469120153   -6.2712052069521844    3.7112455480553583
Cl Cs Mn Rb
6 2 1 1
direct
   0.7313250000000001    0.8525100000000000    0.0003275000000000 Cl
   0.2271260000000000    0.2287230000000000    0.4540710000000001 Cl
   0.7735245000000001    0.7772355000000001    0.5474705000000000 Cl
   0.2700634999999999    0.1502275000000000    0.0005455000000000 Cl
   0.8518510000000000    0.2710460000000000    0.0016315000000000 Cl
   0.1493994999999999    0.7331674999999999    0.9998744999999999 Cl
   0.7505480000000000    0.2517389999999999    0.5004715000000001 Cs
   0.2505035000000000    0.7517095000000001    0.5003930000000001 Cs
   0.0006755000000000    0.0020285000000000    0.0007470000000000 Mn
   0.5004745000000000    0.5015925000000001    0.0006305000000001 Rb
