Cs2 Na1 Al1 Cl6
1.0
  -4.1649521466055930   -5.8899787697026138    0.0050653290688079
  -6.2481528008319431    0.0000000000000000   -3.6096620955188552
   2.0832006542263506   -5.8899787697026138   -3.6106182504123363
Al Cl Cs Na
1 6 2 1
direct
   0.9957630000000000    0.0027614999999999    0.0029504999999999 Al
   0.4534250000000002    0.7753110000000000    0.7755479999999999 Cl
   0.9951584999999999    0.7739334999999999    0.2331429999999999 Cl
   0.9947029999999999    0.2327205000000000    0.7739775000000000 Cl
   0.5372599999999998    0.2318990000000001    0.2323060000000000 Cl
   0.9945240000000000    0.7738495000000000    0.7745325000000001 Cl
   0.9952400000000001    0.2326985000000001    0.2325245000000001 Cl
   0.4966999999999999    0.2525955000000001    0.7520875000000000 Cs
   0.4966605000000001    0.7519860000000000    0.2528725000000001 Cs
   0.9968745000000000    0.5019275000000000    0.5020670000000000 Na
