Cs2 Pd1 Au1 Cl6
1.0
   1.9790035182023977   -5.9203662947854818   -3.3325308091587198
  -6.2430880634901813   -0.0000000000000000   -3.3329561793822160
   4.2640845452877834    5.9203662947854818   -0.6786215114590641
Au Cl Cs Pd
1 6 2 1
direct
   0.9982124999999998    0.9987609999999998    0.9977285000000002 Au
   0.7119169999999999    0.7121525000000000    0.4262625000000002 Cl
   0.2325014999999999    0.7632594999999999    0.9975150000000002 Cl
   0.7624605000000000    0.2327960000000000    0.9971865000000001 Cl
   0.2838315000000000    0.2843215000000000    0.5683220000000001 Cl
   0.7481275000000001    0.7488750000000000    0.9968375000000000 Cl
   0.2485680000000000    0.2492304999999999    0.9993565000000002 Cl
   0.7483934999999999    0.2482814999999998    0.4975640000000000 Cs
   0.2477810000000001    0.7488915000000000    0.4975435000000002 Cs
   0.4980685000000000    0.4984725000000000    0.9973720000000001 Pd
