Cs2 Ag1 Sb1 Cl6
1.0
  -6.5246238111394170    0.0000000000000000    3.7664540898867429
  -2.1698254401562429    6.1544544708678055   -3.7682088270828071
   2.1698254401562429   -6.1544544708678055   -3.7754773929171925
Ag Cl Cs Sb
1 6 2 1
direct
   0.0004555000000001    0.0014290000000001    0.0015879999999998 Ag
   0.2514810000000001    0.7505355000000002    0.0005519999999999 Cl
   0.7510495000000000    0.7516160000000000    0.0042519999999998 Cl
   0.2497870000000001    0.2529135000000001    0.0000579999999999 Cl
   0.7505665000000000    0.2546470000000002    0.0052000000000000 Cl
   0.7467640000000000    0.7505535000000001    0.4986960000000000 Cl
   0.2555580000000000    0.2536560000000001    0.5055120000000000 Cl
   0.7508280000000001    0.2530410000000001    0.5027900000000000 Cs
   0.2508395000000000    0.7531235000000001    0.5028280000000001 Cs
   0.5006745000000001    0.5021010000000001    0.0021779999999999 Sb
