Cs2 K1 In1 Cl6
1.0
   2.2349383362233297   -6.2423014364694573    3.8534696113994689
   4.4630700635074563    6.2423014364694573    0.1375527649606267
  -6.6980083997307860   -0.0000000000000000    3.8691115086399042
Cl Cs In K
6 2 1 1
direct
   0.2774860000000001    0.0139240000000000    0.1956129999999999 Cl
   0.1749954999999997    0.9746859999999998    0.7226575000000000 Cl
   0.8236270000000001    0.0229980000000001    0.2821764999999998 Cl
   0.7244174999999999    0.9887599999999999    0.8109619999999998 Cl
   0.2269209999999998    0.4576149999999997    0.2082499999999997 Cl
   0.7759229999999999    0.5442880000000000    0.7973849999999997 Cl
   0.7525104999999999    0.4998300000000000    0.2503985000000000 Cs
   0.2486684999999998    0.5004960000000001    0.7551849999999998 Cs
   0.0005520000000000    0.0008839999999999    0.0034129999999999 In
   0.5002215000000000    0.0011590000000000    0.5040934999999999 K
