Cs2 Sc1 Hg1 Cl6
1.0
   0.0000000000000000    5.4739750000000003    5.4739750000000003
   5.4739750000000003    0.0000000000000000    5.4739750000000003
   5.4739750000000003    5.4739750000000003    0.0000000000000000
Cs Sc Hg Cl
2 1 1 6
direct
   0.7500000000000000    0.7500000000000000    0.7500000000000000 Cs
   0.2500000000000000    0.2500000000000000    0.2500000000000000 Cs
   0.0000000000000000    0.0000000000000000    0.0000000000000000 Sc
   0.5000000000000000    0.5000000000000000    0.5000000000000000 Hg
   0.7708460000000000    0.2291540000000000    0.2291540000000000 Cl
   0.2291540000000000    0.2291540000000000    0.7708460000000000 Cl
   0.2291540000000000    0.7708460000000000    0.7708460000000000 Cl
   0.2291540000000000    0.7708460000000000    0.2291540000000000 Cl
   0.7708460000000000    0.2291540000000000    0.7708460000000000 Cl
   0.7708460000000000    0.7708460000000000    0.2291540000000000 Cl
