Cs2 Y1 Ag1 Cl6
1.0
   4.3560766818167096    6.1617946497108029   -0.0000638209109107
   6.5356969294453426   -0.0000000000000000   -3.7723795745842525
  -0.0000000000000000   -0.0000000000000000   -7.5473025949999997
Ag Cl Cs Y
1 6 2 1
direct
   0.9995629999999999    0.0004115000000002    0.9994689999999997 Ag
   0.7477080000000000    0.9976195000000000    0.7444459999999999 Cl
   0.7412870000000000    0.5102335000000000    0.7413100000000000 Cl
   0.2544370000000000    0.4930710000000000    0.2539980000000000 Cl
   0.2493090000000000    0.0059990000000000    0.2516570000000000 Cl
   0.2538620000000000    0.0037545000000000    0.7449150000000000 Cl
   0.7418255000000000    0.0023229999999999    0.2503874999999999 Cl
   0.7485649999999998    0.5012910000000002    0.2480780000000000 Cs
   0.2484790000000000    0.5014669999999999    0.7480430000000001 Cs
   0.4985035000000000    0.0015635000000000    0.4983325000000000 Y
