Cs2 Mg1 Fe1 Cl6
1.0
   2.0397449145953166   -5.8195734214515955    3.5420537442033297
  -6.1681706521820878   -0.0000000000000000    3.5470069021255606
  -0.0000000000000000   -0.0000000000000000   -7.1318206499999999
Cl Cs Fe Mg
6 2 1 1
direct
   0.2513934999999999    0.2480834999999999    0.0008949999999999 Cl
   0.2514434999999998    0.7553449999999999    0.0011739999999998 Cl
   0.7568540000000000    0.2470824999999999    0.9982090000000000 Cl
   0.7573440000000000    0.7537885000000000    0.9981650000000000 Cl
   0.7517985000000000    0.7491445000000000    0.4942689999999998 Cl
   0.2571815000000000    0.2523950000000000    0.5053070000000000 Cl
   0.2542560000000000    0.7506115000000000    0.5002339999999998 Cs
   0.7550820000000000    0.2514075000000000    0.4999119999999999 Cs
   0.0038109999999999    0.0018430000000000    0.9999849999999998 Fe
   0.5041134999999999    0.5014384999999999    0.0000009999999998 Mg
