Cs2 Ti1 Ag1 Cl6
1.0
   0.0000000000000000    0.0000000000000000   -7.2628392149999996
   2.0776957607943882   -5.9727752229908191   -3.6253754953260429
  -6.3233908745352263    0.0000000000000000   -3.6282673648282557
Ag Cl Cs Ti
1 6 2 1
direct
   0.9974970000000001    0.9976130000000000    0.9986080000000001 Ag
   0.4686955000000002    0.2623384999999999    0.2651429999999999 Cl
   0.9964094999999998    0.2597420000000001    0.7394475000000000 Cl
   0.9963890000000000    0.7367669999999999    0.2620800000000000 Cl
   0.5275650000000000    0.7334885000000000    0.7373555000000001 Cl
   0.9962954999999999    0.7331845000000000    0.7358780000000000 Cl
   0.0026445000000002    0.2602534999999999    0.2642569999999999 Cl
   0.4978750000000000    0.2487375000000001    0.7500635000000000 Cs
   0.4980485000000002    0.7469275000000000    0.2519600000000000 Cs
   0.9982464999999999    0.4976910000000000    0.4999035000000001 Ti
