Cs2 Zn1 Pd1 Cl6
1.0
   2.0131908734824493   -5.9819617429429011    3.5309174058338213
   6.4046136487540828   -0.0000000000000000   -3.6594220381213520
  -2.0131908734824493    5.9819617429429011    3.9069578241661791
Cl Cs Pd Zn
6 2 1 1
direct
   0.2356735000000000    0.7709375000000001    0.0040520000000000 Cl
   0.2208670000000001    0.2152459999999999    0.9969970000000000 Cl
   0.7806645000000001    0.7638214999999999    0.0039350000000000 Cl
   0.7738420000000001    0.2077239999999999    0.9961730000000001 Cl
   0.3063210000000001    0.3004280000000001    0.6070209999999999 Cl
   0.7000430000000000    0.6904295000000000    0.3950730000000001 Cl
   0.7551670000000001    0.2503940000000000    0.5043470000000001 Cs
   0.2507970000000000    0.7453354999999999    0.4963110000000001 Cs
   0.0020890000000000    0.9954349999999998    0.9993650000000001 Pd
   0.5048254999999999    0.5713649999999999    0.0019299999999998 Zn
