Cs2 V1 Zn1 Cl6
1.0
  -4.0936281697115184   -5.7933256823037249   -0.0087723614842767
  -2.0568275590590028    5.7933256823037249   -3.5490995729499999
   6.1504557287705213    0.0000000000000000   -3.5469585905657230
Cl Cs V Zn
6 2 1 1
direct
   0.9996470000000000    0.7471150000000000    0.7469595000000000 Cl
   0.9996339999999999    0.7474505000000000    0.2523455000000000 Cl
   0.9996530000000001    0.2515100000000000    0.7482765000000000 Cl
   0.9996730000000000    0.2515259999999999    0.2513289999999999 Cl
   0.4959320000000002    0.7481875000000001    0.7479790000000002 Cl
   0.5036560000000001    0.2519554999999999    0.2517985000000000 Cl
   0.4995969999999998    0.2502455000000000    0.7497695000000000 Cs
   0.4996339999999999    0.7502589999999999    0.2497930000000000 Cs
   0.0000940000000000    0.9968265000000001    0.9995360000000002 V
   0.0009990000000001    0.4986965000000001    0.4991690000000002 Zn
