Cs2 Tl1 Pd1 Cl6
1.0
  -0.0000000000000000   -0.0000000000000000    7.4857545200000004
   6.4925955161938926   -0.0000000000000000   -3.7347142984351858
  -2.1566250075747986    6.1254978804167957   -3.7375231293510423
Cl Cs Pd Tl
6 2 1 1
direct
   0.0022069999999998    0.7709554999999998    0.7721894999999999 Cl
   0.9979589999999999    0.2281464999999999    0.7705839999999998 Cl
   0.9993990000000000    0.7690399999999999    0.2303485000000000 Cl
   0.9966590000000000    0.2276100000000000    0.2288430000000000 Cl
   0.4564150000000000    0.2283560000000000    0.2297165000000000 Cl
   0.5418060000000000    0.7699429999999999    0.7720499999999999 Cl
   0.4993110000000001    0.2485180000000000    0.7511300000000000 Cs
   0.4994250000000001    0.7483915000000001    0.2513000000000000 Cs
   0.9991900000000001    0.9990195000000001    0.0006180000000000 Pd
   0.9991620000000001    0.4986754999999999    0.5007790000000001 Tl
