Cs2 Na1 Ir1 Cl6
1.0
  -0.0000000000000000   -0.0000000000000000    7.2289735149999998
   6.2650433995585262   -0.0000000000000000   -3.6106912477334685
  -2.0868551085968186    5.9084655386635809   -3.6133888598457902
Cl Cs Ir Na
6 2 1 1
direct
   0.0054360000000000    0.7722105000000000    0.7737309999999999 Cl
   0.9971730000000001    0.2310700000000001    0.7687010000000001 Cl
   0.0062270000000001    0.7743490000000000    0.2360400000000000 Cl
   0.0009210000000000    0.2336605000000000    0.2323795000000000 Cl
   0.4637060000000000    0.2361825000000000    0.2315810000000000 Cl
   0.5399000000000000    0.7686010000000001    0.7739270000000000 Cl
   0.5022329999999999    0.2526540000000000    0.7522264999999999 Cs
   0.5025740000000002    0.7524505000000000    0.2532020000000000 Cs
   0.0018700000000000    0.0023360000000000    0.0022050000000000 Ir
   0.0021640000000001    0.5024760000000001    0.5021395000000000 Na
