Cs2 Sr1 Ni1 Cl6
1.0
  -6.4179732961771307    0.0000000000000000    3.6849303085636356
  -2.1182213909423862    6.0593587208768351   -3.6883393843099648
   2.1182213909423862   -6.0593587208768351   -3.7424842906900353
Cl Cs Ni Sr
6 2 1 1
direct
   0.2296035000000002    0.7709170000000002    0.0009250000000001 Cl
   0.7724150000000000    0.7699775000000002    0.0008680000000001 Cl
   0.2291380000000002    0.2283575000000001    0.0008610000000001 Cl
   0.7711335000000000    0.2275545000000000    0.0008270000000000 Cl
   0.7695910000000000    0.7679985000000000    0.5389039999999999 Cl
   0.2314035000000000    0.2297560000000001    0.4625990000000000 Cl
   0.7507239999999999    0.2489795000000000    0.5011530000000000 Cs
   0.2507185000000002    0.7489770000000001    0.5011610000000002 Cs
   0.0000964999999999    0.9990915000000000    0.0000910000000001 Ni
   0.5003750000000000    0.4993955000000001    0.0005590000000001 Sr
