Cs2 Na1 Y1 Cl6
1.0
   0.0000000000000000    5.4568170000000000    5.4568170000000000
   5.4568170000000000    0.0000000000000000    5.4568170000000000
   5.4568170000000000    5.4568170000000000    0.0000000000000000
Cs Na Y Cl
2 1 1 6
direct
   0.7500000000000000    0.7500000000000000    0.7500000000000000 Cs
   0.2500000000000000    0.2500000000000000    0.2500000000000000 Cs
   0.5000000000000000    0.5000000000000000    0.5000000000000000 Na
   0.0000000000000000    0.0000000000000000    0.0000000000000000 Y
   0.7575040000000000    0.2424960000000000    0.2424960000000000 Cl
   0.2424960000000000    0.2424960000000000    0.7575040000000000 Cl
   0.2424960000000000    0.7575040000000000    0.7575040000000000 Cl
   0.2424960000000000    0.7575040000000000    0.2424960000000000 Cl
   0.7575040000000000    0.2424960000000000    0.7575040000000000 Cl
   0.7575040000000000    0.7575040000000000    0.2424960000000000 Cl
