Cs2 Sc1 Ag1 Br6
1.0
   0.0000000000000000    5.5820140000000000    5.5820140000000000
   5.5820140000000000    0.0000000000000000    5.5820140000000000
   5.5820140000000000    5.5820140000000000    0.0000000000000000
Cs Sc Ag Br
2 1 1 6
direct
   0.7500000000000000    0.7500000000000000    0.7500000000000000 Cs
   0.2500000000000000    0.2500000000000000    0.2500000000000000 Cs
   0.0000000000000000    0.0000000000000000    0.0000000000000000 Sc
   0.5000000000000000    0.5000000000000000    0.5000000000000000 Ag
   0.7600540000000000    0.2399460000000000    0.2399460000000000 Br
   0.2399460000000000    0.2399460000000000    0.7600540000000000 Br
   0.2399460000000000    0.7600540000000000    0.7600540000000000 Br
   0.2399460000000000    0.7600540000000000    0.2399460000000000 Br
   0.7600540000000000    0.2399460000000000    0.7600540000000000 Br
   0.7600540000000000    0.7600540000000000    0.2399460000000000 Br
