Cs4 Ga2 Hg2 Cl12
1.0
   6.5208724649502692   -0.0000000000000000   -2.8984712785723716
   3.3304308817372035   -7.8142429132859563    3.5388901250410965
  -3.1904415832130657   -7.8142429132859563   -7.2658447363865326
Cs Ga Hg Cl
4 2 2 12
direct
   0.0467200000000000    0.5553850000000000    0.7158000000000000 Cs
   0.4983190000000002    0.9977559999999999    0.4371930000000002 Cs
   0.4939220000000001    0.0946700000000000    0.8690180000000001 Cs
   0.0283500000000001    0.5338369999999999    0.2334540000000001 Cs
   0.0146880000000001    0.0325279999999999    0.1108910000000000 Ga
   0.5099490000000000    0.4877200000000000    0.4974470000000000 Ga
   0.4969120000000000    0.6256570000000000    0.9044219999999999 Hg
   0.9155460000000000    0.0962460000000000    0.6179260000000000 Hg
   0.7581590000000002    0.9373829999999999    0.1638960000000002 Cl
   0.2676390000000001    0.6826749999999999    0.4395620000000000 Cl
   0.0840820000000001    0.1440369999999999    0.2534250000000001 Cl
   0.7456920000000000    0.6402250000000000    0.4577730000000001 Cl
   0.7877960000000001    0.7162170000000000    0.9298970000000000 Cl
   0.2975940000000002    0.3054440000000000    0.5558820000000000 Cl
   0.3173180000000001    0.8383750000000000    0.7355990000000000 Cl
   0.6129650000000000    0.3738400000000000    0.3467910000000001 Cl
   0.9600990000000000    0.1976010000000000    0.9306980000000000 Cl
   0.3344180000000000    0.4251890000000000    0.9996220000000000 Cl
   0.5929900000000000    0.4383930000000000    0.7039450000000000 Cl
   0.2538840000000001    0.8534599999999999    0.0950830000000000 Cl
