Cs4 Ba2 Ti2 Cl12
1.0
  -6.7434157694474424    0.0000000000000000    3.8310506270284739
  -2.2390696022715848    6.3401535405064813   -3.8868844872279653
  -4.5043461671758571   -6.3401535405064813   -7.7954105157435603
Cs Ba Ti Cl
4 2 2 12
direct
   0.9929450000000000    0.5289779999999999    0.7503379999999999 Cs
   0.4896180000000001    0.9689300000000000    0.2471279999999999 Cs
   0.5084530000000000    0.0302039999999999    0.7519870000000000 Cs
   0.0036260000000000    0.4690700000000000    0.2512750000000000 Cs
   0.9990370000000000    0.9991359999999999    0.0002010000000000 Ba
   0.4988140000000000    0.4990999999999999    0.4998929999999999 Ba
   0.4987489999999999    0.4996529999999999    0.0001700000000000 Ti
   0.9990760000000000    0.9990979999999999    0.5000279999999999 Ti
   0.2406779999999999    0.6984999999999999    0.0291320000000000 Cl
   0.8027179999999999    0.2591109999999999    0.5299920000000000 Cl
   0.6985280000000000    0.7567079999999999    0.9750899999999999 Cl
   0.2562880000000000    0.1988979999999999    0.4732019999999999 Cl
   0.2982450000000000    0.2428909999999999    0.0247839999999999 Cl
   0.7431520000000000    0.7976500000000000    0.5265320000000000 Cl
   0.7549079999999999    0.2984240000000000    0.9739180000000000 Cl
   0.1962320000000000    0.7399400000000000    0.4701630000000000 Cl
   0.0497280000000000    0.9913649999999999    0.7291580000000000 Cl
   0.5469140000000000    0.5048999999999999    0.2285940000000000 Cl
   0.4506570000000000    0.4953149999999999    0.7713119999999999 Cl
   0.9487460000000000    0.0073620000000001    0.2710900000000001 Cl
