Cs4 Mn2 Pt2 Cl12
1.0
  -1.4847418545017137    5.7896839440765566   -3.2756957166980096
  -6.3304454570575635    0.0000000000000000    2.5535787807569914
   4.8457036025558500    5.7896839440765566    9.7235128525449976
Cs Mn Pt Cl
4 2 2 12
direct
   0.4823249999999999    0.0059540000000000    0.2487870000000000 Cs
   0.0582570000000001    0.4419800000000000    0.7483370000000000 Cs
   0.9440820000000001    0.5571620000000002    0.2485910000000000 Cs
   0.5069870000000002    0.9849300000000000    0.7486910000000000 Cs
   0.9934200000000001    0.0054950000000000    0.9959690000000000 Mn
   0.5107520000000001    0.4932650000000000    0.4992900000000000 Mn
   0.4950740000000002    0.5002340000000000    0.9974540000000000 Pt
   0.0029610000000001    0.9946230000000000    0.4988400000000000 Pt
   0.7741950000000004    0.3185079999999999    0.9578179999999998 Cl
   0.1857850000000001    0.7175090000000001    0.5371920000000000 Cl
   0.6717500000000000    0.7848920000000000    0.0041890000000000 Cl
   0.2876580000000001    0.1723400000000000    0.5072430000000000 Cl
   0.3196160000000002    0.2142200000000000    0.9916610000000000 Cl
   0.7171210000000001    0.8182740000000002    0.4912480000000000 Cl
   0.2175390000000000    0.6837080000000000    0.0362600000000000 Cl
   0.8201620000000001    0.2719250000000000    0.4584580000000000 Cl
   0.9817360000000001    0.0567100000000000    0.1852790000000000 Cl
   0.5586250000000001    0.4851010000000000    0.6883149999999999 Cl
   0.4467390000000001    0.5055970000000000    0.3107200000000000 Cl
   0.0065540000000000    0.9432630000000001    0.8076020000000000 Cl
