Cs2 Ca1 Zn1 Cl6
1.0
  -0.0000000000000000   -0.0000000000000000    7.3235467950000004
   2.1167410714996988   -5.9818869705198212   -3.6621210020964714
   4.2295946647221925    5.9818869705198212    0.0004743546399926
Ca Cl Cs Zn
1 6 2 1
direct
   0.9978825000000000    0.9997060000000001    0.9989275000000001 Ca
   0.2576839999999999    0.9987874999999999    0.7368735000000001 Cl
   0.2576150000000000    0.5224084999999999    0.2610465000000001 Cl
   0.7344070000000000    0.4761165000000002    0.7374605000000002 Cl
   0.7344744999999998    0.9983704999999999    0.2598940000000000 Cl
   0.2571605000000000    0.9983335000000000    0.2602660000000000 Cl
   0.7349340000000000    0.9993755000000000    0.7376365000000000 Cl
   0.7475615000000000    0.4993250000000000    0.2492495000000000 Cs
   0.2476030000000000    0.4993085000000002    0.7491935000000002 Cs
   0.4960954999999999    0.9998290000000000    0.4986635000000000 Zn
