Cs2 Hg1 Pd1 Cl6
1.0
   2.1298565556662994   -6.1102519497028993    3.7241992149508905
   6.4906782229797653   -0.0000000000000000   -3.7123271746973128
  -2.1298565556662994    6.1102519497028993    3.7889597150491099
Cl Cs Hg Pd
6 2 1 1
direct
   0.2788835000000000    0.7190850000000000    0.0036100000000001 Cl
   0.2799344999999996    0.2817130000000000    0.0048390000000000 Cl
   0.7147895000000000    0.7182735000000001    0.9987739999999998 Cl
   0.7191595000000001    0.2818985000000001    0.0035840000000001 Cl
   0.2169345000000000    0.2175910000000001    0.4412049999999999 Cl
   0.7803144999999998    0.7808925000000000    0.5632359999999997 Cl
   0.7483675000000000    0.2500415000000000    0.5025829999999999 Cs
   0.2488319999999997    0.7497929999999999    0.5026809999999997 Cs
   0.9982430000000001    0.9993145000000001    0.0021740000000001 Hg
   0.4981134999999999    0.4997845000000001    0.0024060000000000 Pd
