Cs2 Pt1 Pb1 Cl6
1.0
   6.3785323409287660   -0.0000000000000000    2.7875407483476273
  -1.6870605953963163    5.8323290679251354    3.4781676761572458
  -4.6914717455324499   -5.8323290679251354    2.3532266754951277
Cl Cs Pb Pt
6 2 1 1
direct
   0.2401865000000002    0.2065045000000003    0.4193630000000004 Cl
   0.1931140000000001    0.6406060000000000    0.9653700000000000 Cl
   0.8028615000000001    0.3692005000000000    0.0331470000000001 Cl
   0.7578029999999998    0.8002525000000000    0.5789534999999999 Cl
   0.3078440000000000    0.1868385000000001    0.9129364999999999 Cl
   0.6874475000000002    0.8223355000000001    0.0864550000000000 Cl
   0.7696355000000001    0.2731810000000000    0.5029975000000000 Cs
   0.2282529999999999    0.7346185000000001    0.4962405000000001 Cs
   0.9975410000000001    0.0043100000000001    0.9993060000000000 Pb
   0.4977580000000000    0.5045240000000000    0.9994790000000001 Pt
