Cs2 Mg1 Pt1 Cl6
1.0
  -1.2149725025729459    4.8601682113387676   -2.9989877628261903
   6.3412757187640540    0.0000000000000000   -2.5545921877678182
  -5.1263032161911077   -4.8601682113387676   -3.6153274444059917
Cl Cs Mg Pt
6 2 1 1
direct
   0.7473260000000002    0.8067970000000000    0.1400440000000001 Cl
   0.7497415000000001    0.3366880000000001    0.1392580000000001 Cl
   0.2461925000000001    0.6642740000000000    0.8571910000000000 Cl
   0.2483770000000000    0.1941980000000000    0.8564330000000000 Cl
   0.7815179999999999    0.8458365000000000    0.6885000000000000 Cl
   0.2155665000000001    0.1542985000000000    0.3066020000000000 Cl
   0.2347395000000000    0.7096395000000000    0.4175429999999999 Cs
   0.7623620000000000    0.2905310000000000    0.5787199999999999 Cs
   0.9979815000000000    0.0000700000000000    0.9978790000000000 Mg
   0.4979245000000001    0.5004345000000000    0.9982270000000001 Pt
