Cs2 Li1 Ta1 Cl6
1.0
  -2.0496828550919828    5.8802005384401328   -3.5562579895901312
   6.2268772322389641    0.0000000000000000   -3.5581199928071610
  -4.1771943771469813   -5.8802005384401328   -0.0999889926027082
Cl Cs Li Ta
6 2 1 1
direct
   0.7435659999999998    0.7442130000000002    0.0020000000000000 Cl
   0.7439614999999999    0.2597725000000002    0.0030920000000000 Cl
   0.2584789999999998    0.7441830000000000    0.0020709999999998 Cl
   0.2586900000000000    0.2595015000000002    0.0027340000000000 Cl
   0.7450639999999999    0.7457610000000002    0.4902500000000000 Cl
   0.2565190000000002    0.2570375000000002    0.5131620000000002 Cl
   0.2510645000000000    0.7517680000000002    0.5021130000000001 Cs
   0.7509715000000001    0.2515050000000001    0.5020320000000000 Cs
   0.0014360000000000    0.0023030000000001    0.0029690000000000 Li
   0.5009014999999999    0.5016790000000001    0.0019300000000000 Ta
