Cs4 V2 Au2 Cl12
1.0
   6.8918589039231168   -0.0000000000000000   -4.3911250370500952
   3.0382705035885311   -5.9160980373099950    4.8456088247517766
  -3.8535884003345857   -5.9160980373099950   -5.2952477981981279
Cs V Au Cl
4 2 2 12
direct
   0.9937760000000001    0.5075930000000000    0.7477630000000002 Cs
   0.5120710000000002    0.9889249999999999    0.2481270000000001 Cs
   0.4930690000000000    0.0155540000000000    0.7489970000000000 Cs
   0.0108530000000001    0.4977750000000000    0.2493740000000001 Cs
   0.5023080000000000    0.5016400000000001    0.9993830000000000 V
   0.0026000000000000    0.0025139999999999    0.4982970000000001 V
   0.0028040000000000    0.0026940000000001    0.9982380000000001 Au
   0.5027660000000002    0.5026139999999999    0.4992980000000001 Au
   0.7114540000000000    0.3046450000000001    0.9913420000000001 Cl
   0.2004350000000001    0.7944139999999998    0.5115870000000001 Cl
   0.3153070000000001    0.3005199999999999    0.0567030000000001 Cl
   0.7989020000000001    0.8173539999999999    0.5547010000000001 Cl
   0.6891320000000000    0.7028029999999998    0.9411900000000001 Cl
   0.2062160000000000    0.1880059999999999    0.4420830000000001 Cl
   0.2932520000000002    0.6989979999999999    0.0064260000000002 Cl
   0.8049040000000002    0.2109449999999998    0.4849290000000002 Cl
   0.0713360000000000    0.0897030000000000    0.7686840000000000 Cl
   0.5891260000000000    0.5716009999999999    0.2697970000000001 Cl
   0.4155260000000000    0.4338409999999999    0.7287130000000001 Cl
   0.9342780000000002    0.9156849999999999    0.2278510000000001 Cl
