Cs4 Y2 Pd2 Cl12
1.0
   1.7262767277430060   -6.1108833614835056    3.3058182405038847
   6.3478348931834541   -0.0000000000000000   -3.3171572854118043
   4.6215581654404483    6.1108833614835056    8.8987231440843111
Cs Y Pd Cl
4 2 2 12
direct
   0.5006670000000000    0.0058040000000000    0.2501180000000000 Cs
   0.0023700000000000    0.5040110000000000    0.7500010000000000 Cs
   0.0000000000000000    0.5021530000000001    0.2499470000000000 Cs
   0.5028190000000001    0.0029050000000000    0.7500940000000000 Cs
   0.5010889999999999    0.5047540000000001    0.9999339999999999 Y
   0.0025439999999999    0.0030770000000000    0.5000190000000000 Y
   0.0007850000000000    0.0043340000000000    0.0002290000000000 Pd
   0.5021190000000000    0.5028130000000000    0.4997610000000000 Pd
   0.2879600000000000    0.8050000000000000    0.9995650000000000 Cl
   0.7020519999999999    0.2163560000000000    0.5001590000000000 Cl
   0.2008400000000000    0.2914210000000000    0.9995370000000000 Cl
   0.7898839999999999    0.7025210000000001    0.5008640000000000 Cl
   0.8019040000000001    0.7169260000000002    0.9996390000000001 Cl
   0.2151420000000000    0.3036940000000001    0.4996909999999999 Cl
   0.7136720000000001    0.2040390000000000    0.0008040000000000 Cl
   0.3033180000000000    0.7907160000000000    0.4994660000000000 Cl
   0.0014110000000000    0.0022460000000000    0.2770750000000000 Cl
   0.5024170000000000    0.5031070000000001    0.7769470000000001 Cl
   0.5001220000000001    0.5061940000000000    0.2228670000000000 Cl
   0.0034029999999999    0.0040600000000002    0.7230380000000000 Cl
