Cs4 Tl2 As2 Cl12
1.0
  -6.6925608206797875    0.0000000000000000    3.8026820327099942
  -2.2263182918097737    6.3136474462032792   -3.8999914854515696
  -4.4662425288700138   -6.3136474462032792   -7.7372436418384360
Cs Tl As Cl
4 2 2 12
direct
   0.9833330000000000    0.4968850000000000    0.7496490000000000 Cs
   0.5188790000000001    0.0010950000000000    0.2500740000000000 Cs
   0.4827230000000001    0.0034540000000000    0.7488990000000000 Cs
   0.0200460000000000    0.5055989999999999    0.2522759999999999 Cs
   0.5010530000000001    0.5007489999999999    0.0000030000000000 Tl
   0.0017360000000001    0.0022980000000000    0.5003050000000000 Tl
   0.0007960000000000    0.0002370000000000    0.0001980000000000 As
   0.5021860000000000    0.5028660000000000    0.5002260000000001 As
   0.2530170000000000    0.7996910000000000    0.0191980000000000 Cl
   0.7103640000000000    0.2577149999999999    0.5195660000000000 Cl
   0.7988510000000000    0.7496230000000000    0.0193400000000000 Cl
   0.2542540000000000    0.2954620000000000    0.5140300000000000 Cl
   0.2046050000000000    0.2503699999999999    0.9815739999999999 Cl
   0.7513170000000002    0.7073400000000001    0.4868420000000000 Cl
   0.7478390000000000    0.2005820000000000    0.9808610000000000 Cl
   0.2950960000000000    0.7496959999999999    0.4805560000000000 Cl
   0.0050420000000000    0.9642350000000000    0.7733700000000000 Cl
   0.5072329999999999    0.4717410000000000    0.2731540000000000 Cl
   0.4952510000000001    0.5354620000000001    0.7270960000000000 Cl
   0.9956450000000001    0.0364150000000000    0.2269620000000000 Cl
