Cs2 Mn1 Ni1 Cl6
1.0
  -1.9048041376099156    5.8034861676897878   -3.4098705143710752
  -6.1040524087637706    0.0000000000000000    3.4183324300772764
   6.1040524087637706    0.0000000000000000    3.7581322999227238
Cl Cs Mn Ni
6 2 1 1
direct
   0.7311015000000001    0.2620390000000002    0.9982400000000003 Cl
   0.7296695000000000    0.7310890000000000    0.9954850000000002 Cl
   0.2607074999999999    0.2615635000000001    0.9970400000000004 Cl
   0.2612095000000000    0.7320415000000000    0.9980010000000002 Cl
   0.2257565000000000    0.2264575000000001    0.4570540000000002 Cl
   0.7656750000000000    0.7677720000000000    0.5366050000000002 Cl
   0.7457819999999999    0.2472025000000000    0.4969460000000001 Cs
   0.2456200000000001    0.7467865000000000    0.4967900000000003 Cs
   0.9950950000000000    0.9953100000000001    0.9957190000000002 Mn
   0.4942020000000001    0.4946930000000003    0.9945310000000004 Ni
