Cs2 Na1 Bi1 Cl6
1.0
  -6.5888334646823763    0.0000000000000000   -3.8035382410519412
  -4.3659415943484454   -6.2403678379933156   -0.0162285795404706
  -6.5888334646823763    0.0000000000000000    3.8226511039480591
Bi Cl Cs Na
1 6 2 1
direct
   0.0015499999999999    0.9996830000000000    0.0015754999999996 Bi
   0.7508490000000003    0.2210970000000000    0.2796089999999997 Cl
   0.7355490000000000    0.2596410000000000    0.7679150000000000 Cl
   0.2678030000000001    0.7392810000000000    0.2341540000000000 Cl
   0.2532995000000000    0.7788125000000000    0.7228249999999997 Cl
   0.7697805000000000    0.7316945000000000    0.2382119999999999 Cl
   0.2333210000000002    0.2670830000000000    0.7651239999999997 Cl
   0.2523960000000002    0.2505720000000000    0.2520004999999998 Cs
   0.7525885000000001    0.7490815000000000    0.7518784999999998 Cs
   0.5017220000000002    0.4998100000000000    0.5017739999999999 Na
