Cs4 Ge2 Pb2 Cl12
1.0
   2.2312041499743218   -6.2834344303377314    3.8291409217607808
   6.6809526032039974   -0.0000000000000000   -3.8828231523363739
   4.4497484532296756    6.2834344303377314    7.7134414459028449
Cs Ge Pb Cl
4 2 2 12
direct
   0.5140860000000000    0.0069500000000000    0.2475960000000000 Cs
   0.9841030000000000    0.4936250000000001    0.7483400000000000 Cs
   0.0147459999999999    0.4893500000000000    0.2493050000000000 Cs
   0.4834709999999999    0.0035100000000002    0.7485380000000000 Cs
   0.9974349999999998    0.9894430000000001    0.9987080000000000 Ge
   0.4961019999999999    0.5064590000000001    0.5029030000000000 Ge
   0.4994400000000000    0.4985730000000000    0.0010380000000000 Pb
   0.9975559999999999    0.9985110000000000    0.4978540000000000 Pb
   0.2100719999999999    0.7399450000000001    0.9807780000000001 Cl
   0.7634100000000000    0.2692370000000000    0.4815610000000000 Cl
   0.2692100000000002    0.2260050000000000    0.0141469999999999 Cl
   0.7098469999999999    0.7518890000000000    0.5187670000000000 Cl
   0.7417489999999999    0.7880960000000001    0.9809410000000001 Cl
   0.2694799999999999    0.2280470000000000    0.4809350000000000 Cl
   0.7736890000000000    0.2676870000000000    0.0137870000000000 Cl
   0.2404470000000000    0.7113400000000001    0.5179920000000000 Cl
   0.9967250000000000    0.9619460000000000    0.2348770000000000 Cl
   0.4971340000000000    0.4714860000000001    0.7372880000000001 Cl
   0.4965950000000000    0.5360699999999999    0.2554339999999999 Cl
   0.0014589999999999    0.0280560000000001    0.7529800000000000 Cl
