Cs4 Ba2 Ge2 Cl12
1.0
   2.2451529522929166   -6.4232963746562142    3.8171175240911901
   6.8684586524968125   -0.0000000000000000   -4.0261616024249802
   4.6233057002038960    6.4232963746562142    7.8857519934838294
Cs Ba Ge Cl
4 2 2 12
direct
   0.5127880000000000    0.9529120000000000    0.2476100000000000 Cs
   0.0122100000000000    0.5495530000000000    0.7472820000000000 Cs
   0.9857239999999999    0.4510960000000002    0.2496060000000000 Cs
   0.4863400000000000    0.0508320000000000    0.7506670000000000 Cs
   0.9993549999999999    0.0008949999999999    0.9980710000000000 Ba
   0.4992079999999999    0.5008790000000000    0.4979529999999999 Ba
   0.4991369999999999    0.5019920000000000    0.9984660000000000 Ge
   0.9996400000000000    0.0000180000000001    0.4988320000000000 Ge
   0.3088490000000000    0.7753559999999999    0.9625160000000000 Cl
   0.7239180000000001    0.1937009999999999    0.4641650000000000 Cl
   0.2239190000000000    0.3074110000000000    0.9640910000000000 Cl
   0.8098680000000000    0.7243780000000000    0.4632050000000000 Cl
   0.7739250000000000    0.6947850000000000    0.0335480000000000 Cl
   0.1906349999999999    0.2758260000000001    0.5356200000000000 Cl
   0.6910950000000000    0.2257260000000000    0.0363030000000000 Cl
   0.2754260000000000    0.8077520000000000    0.5353770000000000 Cl
   0.0656260000000000    0.0100550000000000    0.2649810000000000 Cl
   0.5654630000000000    0.4890549999999999    0.7649000000000000 Cl
   0.4300830000000000    0.5159729999999999    0.2310260000000000 Cl
   0.9303220000000000    0.9881090000000000    0.7311770000000000 Cl
