Cs2 Rb1 Ti1 Cl6
1.0
   6.7334744740515386   -0.0000000000000000   -3.5609618170984891
   2.1362931513834180   -6.3298290355581095   -3.6925550991366825
  -0.0000000000000000   -0.0000000000000000   -7.7107426600000002
Cl Cs Rb Ti
6 2 1 1
direct
   0.6579330000000000    0.2598535000000000    0.7740085000000001 Cl
   0.2255005000000000    0.3317034999999998    0.6885765000000001 Cl
   0.7665870000000000    0.6657290000000000    0.3183710000000000 Cl
   0.3354715000000000    0.7377240000000000    0.2300030000000000 Cl
   0.2803255000000000    0.7508625000000000    0.6896135000000000 Cl
   0.7102795000000000    0.2480284999999999    0.3148664999999999 Cl
   0.2491425000000000    0.2472849999999999    0.2573560000000001 Cs
   0.7427855000000001    0.7519450000000000    0.7466830000000000 Cs
   0.9957115000000000    0.9989260000000000    0.0030749999999998 Rb
   0.4955940000000000    0.4991095000000000    0.5028595000000001 Ti
