Cs2 Ca1 Cu1 Cl6
1.0
  -6.2743028343655194    0.0000000000000000    3.4036829294332542
   1.8491572979974011   -5.9940147324553301    3.4101514639107484
   0.0000000000000000    0.0000000000000000    7.4635009749999996
Ca Cl Cs Cu
1 6 2 1
direct
   0.9997269999999999    0.0023910000000000    0.0006350000000001 Ca
   0.2740075000000000    0.2752634999999999    0.9949860000000001 Cl
   0.7272794999999999    0.2723555000000000    0.0037470000000001 Cl
   0.2714449999999999    0.7303904999999999    0.9994300000000000 Cl
   0.7270175000000000    0.7291905000000000    0.0043800000000000 Cl
   0.7607975000000000    0.7624830000000000    0.4830290000000001 Cl
   0.2368315000000000    0.2408000000000000    0.5178000000000001 Cl
   0.7476365000000000    0.2525500000000002    0.5003810000000000 Cs
   0.2495025000000000    0.7513135000000000    0.5001719999999999 Cs
   0.5011195000000001    0.5017790000000000    0.0012900000000000 Cu
