Cs4 Zn2 Cd2 Cl12
1.0
   1.8095201136897510   -5.9058795096367307    4.6185047676477904
   6.6520991816283717   -0.0000000000000000   -5.7017190422224058
   4.8425790679386207    5.9058795096367307    5.6540959201298033
Cs Zn Cd Cl
4 2 2 12
direct
   0.4503100000000000    0.0505990000000000    0.2670820000000000 Cs
   0.0516980000000001    0.4485560000000000    0.7670490000000000 Cs
   0.0523840000000000    0.4500849999999998    0.2251410000000000 Cs
   0.4496860000000000    0.0493570000000000    0.7248680000000000 Cs
   0.5727930000000002    0.6087309999999997    0.9968510000000002 Zn
   0.9270070000000001    0.8932349999999999    0.4958920000000001 Zn
   0.9417000000000001    0.0127820000000000    0.9968750000000001 Cd
   0.5588970000000002    0.4865759999999999    0.4977430000000002 Cd
   0.3735350000000002    0.7600760000000000    0.9962440000000001 Cl
   0.7628310000000000    0.3071529999999998    0.4959080000000000 Cl
   0.2330030000000001    0.1910640000000000    0.9963230000000001 Cl
   0.6246320000000001    0.7762559999999999    0.4950330000000001 Cl
   0.8757940000000001    0.7232709999999998    0.9950950000000001 Cl
   0.2681120000000001    0.3071860000000000    0.4962770000000001 Cl
   0.7377280000000002    0.1920349999999998    0.9959940000000002 Cl
   0.1253380000000001    0.7403189999999999    0.4968760000000000 Cl
   0.9527680000000001    0.0261280000000000    0.2903040000000001 Cl
   0.5487980000000001    0.4747299999999999    0.7909840000000001 Cl
   0.5492889999999999    0.4748769999999999    0.2020310000000000 Cl
   0.9494230000000000    0.0252380000000000    0.7020810000000001 Cl
