Cs2 Ca1 Pb1 Cl6
1.0
   2.1827496275064480   -6.3545471103282223    3.7796774597290197
   6.6889793175339687   -0.0000000000000000   -3.8411090453593104
   6.6889793175339687   -0.0000000000000000    3.9549667746406900
Ca Cl Cs Pb
1 6 2 1
direct
   0.9992210000000000    0.9993710000000000    0.0008640000000000 Ca
   0.1888674999999999    0.7023925000000002    0.0159219999999998 Cl
   0.2886740000000000    0.1971135000000001    0.0003410000000000 Cl
   0.7092335000000001    0.7990164999999999    0.0038059999999998 Cl
   0.8099274999999999    0.2965155000000004    0.9852390000000000 Cl
   0.7484390000000001    0.7649745000000002    0.4881189999999999 Cl
   0.2505955000000000    0.2341635000000003    0.5140039999999998 Cl
   0.2503029999999999    0.7511950000000003    0.5011629999999998 Cs
   0.7476725000000000    0.2470360000000001    0.5015629999999999 Cs
   0.4990215000000000    0.4990675000000000    0.0010570000000000 Pb
