Cs2 Ti1 Sn1 Cl6
1.0
  -2.1742741088724076    6.1522349952621855   -3.7608167361397178
   0.0000000000000000    0.0000000000000000   -7.5310942200000000
  -6.5254268937548670    0.0000000000000000   -3.7618026560316058
Cl Cs Sn Ti
6 2 1 1
direct
   0.7368965000000001    0.7423205000000002    0.2614384999999999 Cl
   0.7388704999999999    0.2663210000000001    0.7378100000000000 Cl
   0.2622525000000000    0.7343924999999999    0.2613295000000001 Cl
   0.2655819999999999    0.2607945000000003    0.7387935000000000 Cl
   0.2606530000000000    0.7380995000000000    0.7376855000000000 Cl
   0.7402424999999998    0.2637589999999999    0.2609980000000001 Cl
   0.7500195000000000    0.7499445000000000    0.7501455000000000 Cs
   0.2515665000000000    0.2509655000000001    0.2486505000000000 Cs
   0.0011790000000000    0.0009670000000000    0.9990190000000000 Sn
   0.5011650000000000    0.5009990000000000    0.4991280000000000 Ti
