Cs2 Ca1 Ge1 Cl6
1.0
   6.5404209480536863   -0.0000000000000000    3.7716770381816609
  -0.0000000000000000   -0.0000000000000000    7.5507051100000000
   2.1792878747596012   -6.1689865952974978    3.7749410327659292
Ca Cl Cs Ge
1 6 2 1
direct
   0.0015190000000000    0.0007760000000000    0.0024595000000001 Ca
   0.7503505000000000    0.2506105000000001    0.2577155000000000 Cl
   0.2500995000000000    0.7412855000000000    0.2590700000000000 Cl
   0.7517065000000001    0.2591985000000001    0.7480040000000000 Cl
   0.2517970000000000    0.7490059999999999    0.7498500000000000 Cl
   0.2587560000000000    0.2484090000000000    0.7554920000000001 Cl
   0.7451000000000000    0.7526360000000001    0.2509079999999999 Cl
   0.2515630000000000    0.2498440000000001    0.2532920000000001 Cs
   0.7515244999999999    0.7498755000000001    0.7532350000000000 Cs
   0.5015260000000000    0.5005100000000000    0.5028450000000000 Ge
