Cs2 Rb1 Cu1 Cl6
1.0
  -6.3982357357730244    0.0000000000000000    3.0748434239597708
   1.4811561672570772   -6.2275704193838921    3.0734579104182225
   4.9170795685159474    6.2275704193838921    2.0714166406220063
Cl Cs Cu Rb
6 2 1 1
direct
   0.0634985000000000    0.2966199999999999    0.9964970000000000 Cl
   0.7011525000000000    0.0646330000000001    0.9991030000000000 Cl
   0.2973459999999999    0.9351565000000001    0.9988590000000001 Cl
   0.9350490000000000    0.7022385000000000    0.9996560000000000 Cl
   0.2544254999999999    0.2545374999999999    0.5060039999999999 Cl
   0.7459180000000001    0.7458100000000000    0.4901239999999999 Cl
   0.2501430000000000    0.7499795000000001    0.4980460000000000 Cs
   0.7500220000000001    0.2501325000000001    0.4981420000000001 Cs
   0.9992924999999999    0.0000880000000000    0.9991599999999998 Cu
   0.4992535000000000    0.4995265000000000    0.9980670000000000 Rb
