Cs4 Be2 Pb2 Cl12
1.0
   3.1848264300033260   -5.9628466782994671    2.3956644109718144
   6.8007998598006321   -0.0000000000000000   -3.4427758195145644
   3.6159734297973061    5.9628466782994671    9.3596907395136206
Cs Be Pb Cl
4 2 2 12
direct
   0.5158080000000000    0.0244690000000000    0.2335730000000000 Cs
   0.9862429999999999    0.5116660000000002    0.7261289999999998 Cs
   0.0125830000000000    0.5031510000000001    0.2646330000000000 Cs
   0.4530290000000000    0.9694560000000001    0.7567079999999999 Cs
   0.9471249999999999    0.9530520000000001    0.9525129999999998 Be
   0.4561839999999999    0.4246950000000002    0.5558540000000000 Be
   0.5166749999999998    0.4955910000000003    0.9980599999999997 Pb
   0.9874049999999999    0.0100500000000001    0.5113199999999999 Pb
   0.2246529999999999    0.8438850000000002    0.9954189999999999 Cl
   0.7152419999999999    0.3480250000000001    0.4755280000000000 Cl
   0.2564489999999999    0.3073690000000002    0.9891739999999998 Cl
   0.7355289999999999    0.8137730000000001    0.4983139999999999 Cl
   0.7851589999999998    0.7730310000000001    0.9747279999999998 Cl
   0.2975389999999999    0.2454380000000002    0.5058440000000000 Cl
   0.8271220000000000    0.1863450000000000    0.0481390000000000 Cl
   0.2999799999999999    0.6740980000000002    0.5216619999999998 Cl
   0.0326799999999999    0.9754550000000001    0.2890499999999999 Cl
   0.5034099999999998    0.4311290000000001    0.7281939999999999 Cl
   0.5018959999999999    0.5519850000000001    0.2229720000000000 Cl
   0.9428960000000000    0.0031630000000001    0.7831099999999999 Cl
