Cs4 Na2 Cu2 Cl12
1.0
  -6.2240020299860737    0.0000000000000000    3.3458880002199511
  -1.7939662807794936    5.9638516747482262   -3.3405455366806027
  -4.4300357492065796   -5.9638516747482262   -8.2406195130994462
Cs Na Cu Cl
4 2 2 12
direct
   0.0013260000000000    0.4966309999999999    0.7486789999999999 Cs
   0.5003079999999999    0.9960750000000000    0.2487379999999999 Cs
   0.4995449999999999    0.9963510000000000    0.7487990000000000 Cs
   0.0013390000000000    0.4958150000000000    0.2488279999999999 Cs
   0.4992929999999998    0.4978870000000001    0.0123220000000001 Na
   0.0019569999999999    0.9968640000000000    0.4863990000000000 Na
   0.9989609999999998    0.9979240000000001    0.0048610000000000 Cu
   0.5030819999999999    0.4965339999999999    0.4917520000000000 Cu
   0.2190870000000000    0.7790260000000000    0.9943299999999999 Cl
   0.7220049999999999    0.2775420000000001    0.5039100000000001 Cl
   0.7799520000000000    0.7785270000000001    0.9929450000000000 Cl
   0.2829559999999999    0.2774529999999999    0.5033010000000000 Cl
   0.2180200000000000    0.2176630000000000    0.9956750000000000 Cl
   0.7213609999999998    0.7165239999999999    0.5038850000000000 Cl
   0.2833649999999999    0.7159800000000001    0.5028980000000000 Cl
   0.7800780000000000    0.2172400000000000    0.9932450000000000 Cl
   0.9990270000000000    0.9957590000000001    0.7182430000000000 Cl
   0.5023879999999999    0.4952320000000000    0.2435219999999999 Cl
   0.5014650000000000    0.4948540000000000    0.7807160000000000 Cl
   0.9990019999999998    0.9945560000000000    0.2551970000000000 Cl
