Cs2 Sn1 Pd1 Cl6
1.0
  -0.0000000000000000   -0.0000000000000000    7.3447541550000004
  -2.1264977859128233    5.9988253167865464   -3.6670355747361452
  -4.2413553077659447   -5.9988253167865464   -0.0057545760580693
Cl Cs Pd Sn
6 2 1 1
direct
   0.2401584999999999    0.9959120000000002    0.2405865000000000 Cl
   0.7510165000000001    0.5063190000000001    0.7513535000000000 Cl
   0.2409870000000001    0.4851030000000001    0.2409370000000000 Cl
   0.7521000000000000    0.9963665000000000    0.7519730000000000 Cl
   0.2379080000000000    0.9947295000000000    0.7513930000000000 Cl
   0.7526325000000000    0.9956530000000001    0.2395015000000001 Cl
   0.2451365000000000    0.4950575000000000    0.7452935000000001 Cs
   0.7448755000000000    0.4944805000000001    0.2449375000000000 Cs
   0.9951430000000001    0.9949494999999999    0.9954010000000000 Pd
   0.4955745000000000    0.9953780000000000    0.4957475000000000 Sn
