Cs2 Li1 Bi1 Cl6
1.0
   4.3076440182050248    6.0950094927952048    0.0015360317404731
  -0.0000000000000000   -0.0000000000000000    7.4649179950000004
   2.1601492097784067   -6.0950094927952048   -3.7329021314936748
Bi Cl Cs Li
1 6 2 1
direct
   0.9963375000000001    0.0001510000000002    0.9990995000000000 Bi
   0.7406900000000002    0.2567150000000002    0.9996180000000001 Cl
   0.2522925000000001    0.2560310000000000    0.5105744999999999 Cl
   0.7402065000000000    0.7444135000000001    0.4876539999999999 Cl
   0.2517290000000000    0.7441140000000001    0.9993949999999999 Cl
   0.2523465000000000    0.2555555000000000    0.9991870000000000 Cl
   0.7401785000000002    0.7445624999999999    0.9995550000000000 Cl
   0.2465685000000000    0.7501375000000001    0.4991620000000001 Cs
   0.7466200000000001    0.2502280000000000    0.4992230000000000 Cs
   0.4973820000000000    0.5000370000000000    0.9989620000000000 Li
