Cs2 Hg1 Pd1 Cl6
1.0
  -3.8147099999999998    3.8147099999999998    5.5604100000000001
   3.8147099999999998   -3.8147099999999998    5.5604100000000001
   3.8147099999999998    3.8147099999999998   -5.5604100000000001
Cs Hg Pd Cl
2 1 1 6
direct
   0.7500000000000000    0.2500000000000000    0.5000000000000000 Cs
   0.2500000000000000    0.7500000000000000    0.5000000000000000 Cs
   0.5000000000000000    0.5000000000000000    0.0000000000000000 Hg
   0.0000000000000000    0.0000000000000000    0.0000000000000000 Pd
   0.7125800000000000    0.7125800000000000    0.0000000000000000 Cl
   0.2874200000000000    0.2874200000000000    0.0000000000000000 Cl
   0.2172300000000000    0.2172300000000000    0.4344600000000000 Cl
   0.7827700000000000    0.7827700000000000    0.5655400000000000 Cl
   0.2172300000000000    0.7827700000000000    0.0000000000000000 Cl
   0.7827700000000000    0.2172300000000000    0.0000000000000000 Cl
