Cs2 Fe1 Sn1 Cl6
1.0
  -0.0000000000000000   -0.0000000000000000    7.4228366950000000
  -2.1478074185321279    6.0784483622556174    3.6826470924614312
  -6.4572213510153924   -0.0000000000000000    3.7087805759194743
Cl Cs Fe Sn
6 2 1 1
direct
   0.2342140000000001    0.7665330000000000    0.2344795000000000 Cl
   0.2339665000000000    0.7663465000000000    0.7642675000000001 Cl
   0.7632274999999999    0.2367995000000001    0.2351639999999999 Cl
   0.7632260000000000    0.2370700000000000    0.7638170000000001 Cl
   0.2319185000000001    0.2359575000000000    0.7639655000000000 Cl
   0.7646025000000000    0.7681645000000000    0.2347060000000001 Cl
   0.7482610000000000    0.7521640000000001    0.7504795000000001 Cs
   0.2482960000000000    0.2521710000000000    0.2478345000000000 Cs
   0.9968740000000003    0.0034169999999999    0.9988610000000000 Fe
   0.4973825000000001    0.5028595000000000    0.4990095000000001 Sn
