Cs2 Hg1 Pb1 Cl6
1.0
   4.3299211559300037    6.2898762776854884   -0.0002785543713166
  -0.0000000000000000   -0.0000000000000000    7.6374562800000003
   2.4080598164419111   -6.2898762776854884   -3.8153197589797445
Cl Cs Hg Pb
6 2 1 1
direct
   0.7169825000000002    0.1995365000000000    0.9993030000000001 Cl
   0.2409550000000000    0.2442085000000000    0.4898815000000000 Cl
   0.7550155000000002    0.7543080000000000    0.5098175000000001 Cl
   0.2824260000000000    0.7991220000000000    0.0008530000000000 Cl
   0.2001115000000000    0.2813579999999999    0.0004965000000000 Cl
   0.7995669999999999    0.7146460000000001    0.9994390000000000 Cl
   0.2496690000000000    0.7491004999999999    0.5000755000000000 Cs
   0.7497945000000000    0.2487665000000000    0.4996790000000000 Cs
   0.9986655000000002    0.9984300000000000    0.9997125000000001 Hg
   0.4989270000000001    0.4988025000000000    0.9997635000000001 Pb
