Cs2 Mn1 Co1 Cl6
1.0
   6.1418136551564952   -0.0000000000000000    3.5218045014515740
  -0.0000000000000000   -0.0000000000000000    7.0817459800000000
   2.0443732710883431   -5.7946562063241780    3.5215449363627087
Cl Co Cs Mn
6 1 2 1
direct
   0.7510370000000001    0.2505390000000001    0.2442050000000000 Cl
   0.2461145000000000    0.7555084999999999    0.2441180000000002 Cl
   0.7522025000000001    0.2509015000000000    0.7502044999999999 Cl
   0.2473520000000000    0.7564110000000001    0.7497130000000001 Cl
   0.2463830000000000    0.2504459999999999    0.7492940000000000 Cl
   0.7519205000000002    0.7558015000000000    0.2453520000000000 Cl
   0.9981744999999999    0.0030575000000000    0.9968545000000000 Co
   0.2488055000000000    0.2537294999999998    0.2463960000000002 Cs
   0.7493110000000002    0.7540210000000001    0.7467560000000000 Cs
   0.4988035000000000    0.5041585000000001    0.4968269999999999 Mn
