Cs4 K2 Y2 Cl12
1.0
  -6.7776876026272399    0.0000000000000000    3.9100052965789680
  -2.3081608232602573    6.4552344420716041   -3.9829684932164287
  -4.4695267793669826   -6.4552344420716041   -7.8918102502046032
Cs K Y Cl
4 2 2 12
direct
   0.0114500000000000    0.5442129999999999    0.7489440000000001 Cs
   0.5110300000000000    0.9554800000000000    0.2488189999999999 Cs
   0.4901350000000000    0.0438200000000000    0.7501719999999999 Cs
   0.9895840000000000    0.4553990000000001    0.2499899999999999 Cs
   0.0009550000000000    0.9997609999999999    0.9998470000000000 K
   0.5003869999999999    0.4997000000000000    0.4996849999999999 K
   0.5003759999999999    0.4997780000000000    0.9998240000000000 Y
   0.0002560000000000    0.9998770000000000    0.4998369999999999 Y
   0.3066230000000000    0.7676050000000001    0.9638920000000001 Cl
   0.7323780000000001    0.1952570000000000    0.4641660000000000 Cl
   0.7674049999999999    0.6960400000000002    0.0342439999999999 Cl
   0.1930320000000001    0.2682140000000000    0.5345309999999999 Cl
   0.2333110000000000    0.3037670000000000    0.9649920000000001 Cl
   0.8074890000000000    0.7315360000000000    0.4649109999999999 Cl
   0.6941820000000000    0.2319170000000000    0.0356809999999999 Cl
   0.2680890000000000    0.8043600000000000    0.5353479999999999 Cl
   0.9359440000000000    0.9898960000000000    0.7312040000000000 Cl
   0.4355380000000000    0.5116460000000000    0.2310579999999999 Cl
   0.5650949999999999    0.4879410000000000    0.7685240000000000 Cl
   0.0647680000000000    0.0096790000000000    0.2684869999999999 Cl
