Cs4 Ba2 Hg2 Cl12
1.0
  -2.2861804963993606    6.3754036360496915   -3.9173523557785743
  -6.8925220110689622    0.0000000000000000    4.0129107800079344
   4.6063415146696016    6.3754036360496915    7.9232494242134912
Cs Ba Hg Cl
4 2 2 12
direct
   0.5121460000000000    0.0495070000000000    0.2483680000000000 Cs
   0.0129920000000000    0.4487589999999999    0.7478359999999998 Cs
   0.9845840000000001    0.5501069999999999    0.2521209999999999 Cs
   0.4843570000000001    0.9480560000000000    0.7519329999999999 Cs
   0.9990859999999999    0.9995710000000000    0.0000340000000000 Ba
   0.4990909999999999    0.4991639999999999    0.5000130000000000 Ba
   0.4992210000000000    0.4995380000000000    0.0000320000000000 Hg
   0.9987070000000000    0.9995579999999999    0.5003540000000000 Hg
   0.7761530000000000    0.3063470000000000    0.0359110000000000 Cl
   0.1920419999999999    0.7233740000000001    0.5366250000000000 Cl
   0.6912850000000000    0.7762650000000000    0.0366130000000000 Cl
   0.2753910000000001    0.1935559999999999    0.5356660000000000 Cl
   0.3074480000000001    0.2225419999999999    0.9636119999999999 Cl
   0.7232720000000001    0.8045500000000000    0.4645400000000000 Cl
   0.2231250000000001    0.6934579999999999    0.9639379999999999 Cl
   0.8072790000000000    0.2764520000000000    0.4635420000000000 Cl
   0.0655260000000000    0.9890450000000000    0.2669280000000000 Cl
   0.5688930000000001    0.5098220000000000    0.7665719999999999 Cl
   0.4287340000000000    0.4886450000000000    0.2334140000000000 Cl
   0.9287190000000000    0.0095800000000000    0.7335270000000000 Cl
