Cs2 Ca1 V1 Cl6
1.0
  -6.3689715236161675    0.0000000000000000   -3.6755020597835117
   2.1228590916583938   -6.0046004170294456    3.6762072805073629
  -2.1228590916583938    6.0046004170294456    3.6791504094926371
Ca Cl Cs V
1 6 2 1
direct
   0.9994654999999999    0.9998549999999999    0.0014044999999999 Ca
   0.2610065000000000    0.5194770000000000    0.2606155000000000 Cl
   0.7394915000000000    0.0002155000000000    0.7426485000000000 Cl
   0.2584710000000000    0.9990110000000001    0.2618540000000001 Cl
   0.7377975000000001    0.4800730000000001    0.7425835000000001 Cl
   0.7410140000000000    0.0027060000000000    0.2634980000000000 Cl
   0.2573835000000000    0.9969080000000001    0.7402805000000001 Cl
   0.7487515000000000    0.4993960000000000    0.2505154999999999 Cs
   0.2489500000000000    0.4997080000000002    0.7507730000000001 Cs
   0.4994215000000000    0.9997825000000000    0.5035495000000000 V
