Cs2 Na1 Ce1 Cl6
1.0
   0.0000000000000000    5.5560830000000001    5.5560830000000001
   5.5560830000000001    0.0000000000000000    5.5560830000000001
   5.5560830000000001    5.5560830000000001    0.0000000000000000
Cs Na Ce Cl
2 1 1 6
direct
   0.7500000000000000    0.7500000000000000    0.7500000000000000 Cs
   0.2500000000000000    0.2500000000000000    0.2500000000000000 Cs
   0.5000000000000000    0.5000000000000000    0.5000000000000000 Na
   0.0000000000000000    0.0000000000000000    0.0000000000000000 Ce
   0.7523770000000000    0.2476230000000000    0.2476230000000000 Cl
   0.2476230000000000    0.2476230000000000    0.7523770000000000 Cl
   0.2476230000000000    0.7523770000000000    0.7523770000000000 Cl
   0.2476230000000000    0.7523770000000000    0.2476230000000000 Cl
   0.7523770000000000    0.2476230000000000    0.7523770000000000 Cl
   0.7523770000000000    0.7523770000000000    0.2476230000000000 Cl
