Cs4 Sr2 Cr2 Cl12
1.0
   1.9595301635199560   -6.1680157560279332    3.5534392806988828
   6.4666323477253771   -0.0000000000000000   -3.5646976246667021
   4.5071021842054213    6.1680157560279332    8.2055804646344157
Cs Sr Cr Cl
4 2 2 12
direct
   0.5029230000000000    0.0041380000000001    0.2494589999999999 Cs
   0.9995879999999998    0.5055060000000002    0.7514369999999999 Cs
   0.0024349999999999    0.5033770000000001    0.2505100000000000 Cs
   0.5014009999999999    0.0047920000000002    0.7504920000000000 Cs
   0.5001519999999999    0.5031199999999999    0.0006470000000000 Sr
   0.0003529999999998    0.0036960000000001    0.5006119999999998 Sr
   0.9997610000000000    0.0029590000000000    0.0018050000000000 Cr
   0.4993929999999999    0.5029280000000000    0.5019939999999999 Cr
   0.2028160000000001    0.7479589999999999    0.0012759999999999 Cl
   0.7582339999999999    0.3043630000000002    0.5009289999999998 Cl
   0.2557499999999999    0.2042500000000000    0.0022340000000000 Cl
   0.7003869999999999    0.7599920000000001    0.5021269999999999 Cl
   0.7458729999999996    0.7999570000000004    0.9976359999999999 Cl
   0.3016449999999998    0.2447980000000003    0.4984739999999999 Cl
   0.7984180000000001    0.2585860000000000    0.0020110000000000 Cl
   0.2420159999999999    0.7023200000000001    0.5020089999999999 Cl
   0.9988849999999999    0.0030520000000000    0.2479820000000000 Cl
   0.4985699999999998    0.5030790000000002    0.7480240000000000 Cl
   0.5022270000000000    0.5075460000000001    0.2528219999999999 Cl
   0.0023539999999998    0.0077890000000000    0.7528269999999999 Cl
