Cs2 Na1 Cr1 Cl6
1.0
  -2.0883997741882712    5.9081051542311842   -3.6171800185359038
  -2.0883997741882712    5.9081051542311842    3.6191942664640964
   4.1798769082311118    5.9081051542311842    0.0001416967036278
Cl Cr Cs Na
6 1 2 1
direct
   0.7697955000000000    0.2325799999999998    0.7661190000000000 Cl
   0.7689174999999998    0.7706309999999998    0.2279829999999999 Cl
   0.2313409999999999    0.2326959999999998    0.7660150000000000 Cl
   0.2325369999999999    0.7708230000000000    0.2278469999999999 Cl
   0.7693039999999998    0.2337385000000001    0.2275745000000000 Cl
   0.2314834999999998    0.7711110000000001    0.7659299999999999 Cl
   0.0002834999999999    0.0010375000000000    0.9983684999999999 Cr
   0.2505704999999998    0.2522069999999998    0.2466360000000001 Cs
   0.7506549999999999    0.7521825000000002    0.7464764999999998 Cs
   0.5004474999999998    0.5017200000000002    0.4973539999999997 Na
