Cs2 K1 Fe1 Cl6
1.0
  -6.5618172680980305    0.0000000000000000    3.7729615997888577
   0.0000000000000000    0.0000000000000000    7.5699305499999996
  -2.1796814768303765    6.1946941095940629    3.7737837596755859
Cl Cs Fe K
6 2 1 1
direct
   0.2220960000000001    0.2229585000000002    0.7781075000000000 Cl
   0.7756795000000000    0.2214730000000000    0.7823550000000000 Cl
   0.2280595000000000    0.7768424999999999    0.2193425000000000 Cl
   0.7810239999999999    0.7755449999999999    0.2243760000000000 Cl
   0.7816595000000000    0.2194029999999999    0.2254050000000000 Cl
   0.2209744999999999    0.7788130000000001    0.7769140000000001 Cl
   0.7518815000000000    0.7497974999999999    0.7513125000000002 Cs
   0.2519170000000001    0.2498449999999999    0.2509300000000000 Cs
   0.0017710000000000    0.9990475000000001    0.0010955000000000 Fe
   0.5020795000000000    0.4992965000000000    0.5008975000000000 K
