Cs4 Ta2 Au2 Cl12
1.0
   6.3737715979228176   -0.0000000000000000   -2.8190619337229905
  -1.3790648681789017    6.3390084899025139   -2.9576934672478852
   4.9947067297439158    6.3390084899025139   11.2127334990291256
Cs Ta Au Cl
4 2 2 12
direct
   0.9895610000000000    0.4531750000000001    0.2545520000000000 Cs
   0.5101920000000001    0.1840280000000002    0.6742250000000000 Cs
   0.4911650000000000    0.9530880000000000    0.2492130000000000 Cs
   0.0102929999999999    0.6845340000000000    0.8302580000000001 Cs
   0.4883649999999999    0.4485260000000000    0.0527910000000000 Ta
   0.9885820000000000    0.9496050000000000    0.4509590000000000 Ta
   0.0697649999999999    0.1921160000000001    0.8226020000000001 Au
   0.5709970000000000    0.6913970000000000    0.6818300000000000 Au
   0.7310660000000001    0.6862819999999999    0.0617060000000000 Cl
   0.2296380000000001    0.1888260000000001    0.4424240000000000 Cl
   0.2556090000000000    0.6899200000000000    0.0636350000000000 Cl
   0.7548750000000000    0.1902150000000001    0.4392240000000000 Cl
   0.7251319999999999    0.2200420000000000    0.0578400000000000 Cl
   0.2258890000000000    0.7217700000000000    0.4462970000000000 Cl
   0.2452650000000000    0.2232500000000000    0.0580860000000000 Cl
   0.7455890000000001    0.7240270000000000    0.4460200000000000 Cl
   0.9920710000000000    0.9504380000000000    0.2720040000000000 Cl
   0.4803469999999999    0.4539210000000000    0.8879730000000000 Cl
   0.4893080000000001    0.4500320000000000    0.2318850000000000 Cl
   0.9786460000000001    0.9541700000000001    0.6157350000000000 Cl
