Cs2 Cu1 Au1 Cl6
1.0
   6.2942710196143885    0.0000000000000000   -3.4830421147409729
  -1.9374528385395564    5.9961434290614406   -3.4874839137426683
   0.0000000000000000    0.0000000000000000    7.4189492950000000
Au Cl Cs Cu
1 6 2 1
direct
   0.0050435000000000    0.0034410000000000    0.0044690000000000 Au
   0.7760600000000000    0.7743804999999999    0.0050150000000000 Cl
   0.2344385000000000    0.7748450000000000    0.0045330000000000 Cl
   0.7765530000000000    0.2328450000000000    0.0048980000000000 Cl
   0.2343470000000000    0.2325010000000000    0.0043930000000000 Cl
   0.3066535000000000    0.3032905000000000    0.6070270000000000 Cl
   0.7051195000000000    0.7018055000000001    0.4031830000000000 Cl
   0.2549475000000000    0.7523255000000000    0.5036170000000000 Cs
   0.7548725000000001    0.2525545000000000    0.5037220000000000 Cs
   0.5066915000000000    0.5045729999999999    0.0053460000000000 Cu
