Cs2 Ca1 Hg1 Cl6
1.0
  -2.1719831013784483    6.1795808253394062   -3.7756417672473148
  -6.5502546647687350    0.0000000000000000    3.7780251713107305
   6.5502546647687350    0.0000000000000000    3.7899798536892693
Ca Cl Cs Hg
1 6 2 1
direct
   0.9991720000000001    0.9984335000000000    0.9986119999999999 Ca
   0.7591550000000001    0.2607745000000001    0.0003859999999999 Cl
   0.7319089999999999    0.7541814999999999    0.9911019999999999 Cl
   0.2632715000000000    0.2397945000000001    0.0013539999999999 Cl
   0.2360984999999999    0.7323990000000000    0.9939880000000000 Cl
   0.2497175000000000    0.2442630000000001    0.5003370000000000 Cl
   0.7482815000000000    0.7510730000000000    0.4953780000000000 Cl
   0.7481745000000000    0.2465290000000000    0.4969230000000001 Cs
   0.2480245000000000    0.7465290000000000    0.4968110000000001 Cs
   0.4988239999999999    0.4979085000000001    0.9979780000000000 Hg
