Cs2 Cr1 Co1 Cl6
1.0
   2.4718697877129925   -5.9692102913010876    2.9907785532500726
  -6.2850299820941506   -0.0000000000000000    3.3436996298169896
  -0.0000000000000000   -0.0000000000000000   -7.1277692349999997
Cl Co Cr Cs
6 1 1 2
direct
   0.2084020000000000    0.2198164999999999    0.9867119999999998 Cl
   0.2675755000000000    0.7303275000000000    0.9966360000000000 Cl
   0.7126195000000000    0.2699354999999999    0.9807190000000000 Cl
   0.7683340000000001    0.7795720000000000    0.9861340000000000 Cl
   0.7138500000000000    0.7253300000000000    0.4364640000000000 Cl
   0.2673050000000000    0.2678199999999999    0.5342219999999999 Cl
   0.0972525000000001    0.0004150000000001    0.0959259999999998 Co
   0.5058770000000000    0.4988140000000000    0.0020430000000000 Cr
   0.2445585000000001    0.7430960000000000    0.4964670000000000 Cs
   0.7547915000000001    0.2541180000000000    0.4960430000000000 Cs
