Cs2 Li1 Bi1 Cl6
1.0
   0.0000000000000000    5.3777609999999996    5.3777609999999996
   5.3777609999999996    0.0000000000000000    5.3777609999999996
   5.3777609999999996    5.3777609999999996    0.0000000000000000
Cs Li Bi Cl
2 1 1 6
direct
   0.7500000000000000    0.7500000000000000    0.7500000000000000 Cs
   0.2500000000000000    0.2500000000000000    0.2500000000000000 Cs
   0.5000000000000000    0.5000000000000000    0.5000000000000000 Li
   0.0000000000000000    0.0000000000000000    0.0000000000000000 Bi
   0.7462720000000000    0.2537280000000000    0.2537280000000000 Cl
   0.2537280000000000    0.2537280000000000    0.7462720000000000 Cl
   0.2537280000000000    0.7462720000000000    0.7462720000000000 Cl
   0.2537280000000000    0.7462720000000000    0.2537280000000000 Cl
   0.7462720000000000    0.2537280000000000    0.7462720000000000 Cl
   0.7462720000000000    0.7462720000000000    0.2537280000000000 Cl
