Cs2 Ti1 Mn1 Cl6
1.0
   0.0000000000000000    0.0000000000000000   -7.2001049950000002
  -6.2393717300938674    0.0000000000000000   -3.5965543008878034
  -2.0795636412388223    5.8849203248974744   -3.5973330290069199
Cl Cs Mn Ti
6 2 1 1
direct
   0.7524759999999999    0.2502390000000000    0.7521059999999999 Cl
   0.2495365000000000    0.7521825000000000    0.7524685000000000 Cl
   0.7515350000000002    0.2505560000000000    0.2503775000000000 Cl
   0.2500249999999998    0.7511909999999999    0.2508560000000000 Cl
   0.7510410000000001    0.7511960000000000    0.2511090000000000 Cl
   0.2490160000000000    0.2503450000000000    0.7523555000000000 Cl
   0.7502895000000002    0.7506925000000000    0.7517374999999999 Cs
   0.2493799999999999    0.2515180000000001    0.2526935000000000 Cs
   0.0003930000000000    0.9985460000000000    0.0037915000000000 Mn
   0.4998070000000000    0.5002340000000001    0.5029235000000001 Ti
