Cs2 Ti1 Ge1 Cl6
1.0
   6.3669955966680813   -0.0000000000000000    3.6761854287442071
   6.3669955966680813   -0.0000000000000000   -3.6757949512557926
   4.2422954100943286    6.0058719646360723   -0.0045969683026321
Cl Cs Ge Ti
6 2 1 1
direct
   0.2524439999999998    0.7443270000000001    0.7478640000000001 Cl
   0.2525525000000001    0.2552010000000000    0.7476294999999999 Cl
   0.7428395000000000    0.7444315000000000    0.2578445000000000 Cl
   0.7428809999999999    0.2549530000000000    0.2577260000000000 Cl
   0.2525614999999999    0.7447355000000001    0.2580735000000000 Cl
   0.7420389999999999    0.2548835000000000    0.7479830000000002 Cl
   0.7468519999999998    0.7504020000000000    0.7521210000000002 Cs
   0.2483079999999999    0.2489750000000000    0.2535380000000000 Cs
   0.9975980000000000    0.9995725000000000    0.0027000000000000 Ge
   0.4976390000000001    0.4995774999999998    0.5026340000000000 Ti
