Cs4 Be2 Sn2 Cl12
1.0
   1.8283140133883298   -6.0185689766799220    3.6496094422546981
   7.6597054462027696   -0.0000000000000000   -3.7760737443894286
   5.8313914328144403    6.0185689766799220    7.0557397433558737
Cs Be Sn Cl
4 2 2 12
direct
   0.5027680000000001    0.0481329999999999    0.2630560000000001 Cs
   0.0041310000000000    0.4388039999999997    0.6927010000000001 Cs
   0.0015630000000000    0.4646340000000000    0.2420830000000000 Cs
   0.5028290000000001    0.0658609999999998    0.8129640000000001 Cs
   0.0037370000000001    0.8979829999999999    0.9895010000000001 Be
   0.5008100000000002    0.5910139999999999    0.3842260000000001 Be
   0.5042760000000001    0.5204959999999998    0.9506370000000001 Sn
   0.0025050000000002    0.9780719999999998    0.5175220000000001 Sn
   0.2349729999999999    0.8254630000000001    0.0626470000000000 Cl
   0.7571240000000001    0.1848359999999999    0.5252400000000002 Cl
   0.2532030000000001    0.3169979999999998    0.9998040000000001 Cl
   0.7285590000000001    0.6747039999999999    0.4308470000000000 Cl
   0.7748740000000001    0.8189340000000001    0.0626740000000000 Cl
   0.2524010000000001    0.1797879999999998    0.5242740000000001 Cl
   0.7475150000000000    0.3083650000000000    0.0013300000000000 Cl
   0.2705890000000000    0.6692649999999999    0.4336710000000000 Cl
   0.0024610000000000    0.0479089999999999    0.2852730000000000 Cl
   0.5060640000000001    0.4829379999999998    0.7259980000000001 Cl
   0.5024740000000001    0.4576600000000000    0.2612750000000000 Cl
   0.0023640000000002    0.0248989999999998    0.8235300000000001 Cl
