Cs4 Zn2 Co2 Cl12
1.0
   6.9188162311629080   -0.0000000000000000   -3.8021725017025210
   3.5835831848886905   -6.2367512166521140    3.2886913433414064
  -3.3352330462742175   -6.2367512166521140   -7.0309345949560722
Cs Zn Co Cl
4 2 2 12
direct
   0.0603360000000001    0.5444410000000000    0.7485430000000000 Cs
   0.4953760000000001    0.9810249999999998    0.2504150000000001 Cs
   0.4815340000000001    0.9934830000000000    0.7498180000000001 Cs
   0.0424660000000002    0.5549589999999999    0.2484790000000000 Cs
   0.6225190000000000    0.4572570000000000    0.9966080000000000 Zn
   0.9697770000000001    0.1198069999999999    0.4970160000000000 Zn
   0.0372880000000001    0.0573839999999999    0.0612130000000000 Co
   0.5648910000000000    0.5348729999999999    0.5584570000000000 Co
   0.7683500000000001    0.1691830000000001    0.9850770000000001 Cl
   0.3174860000000000    0.6951140000000000    0.4932770000000001 Cl
   0.2058040000000002    0.2479039999999998    0.0149350000000000 Cl
   0.7527260000000000    0.7076909999999998    0.5162620000000000 Cl
   0.7505960000000000    0.6868440000000000    0.9855830000000001 Cl
   0.1973070000000001    0.2506690000000000    0.4866630000000000 Cl
   0.6821810000000001    0.2700849999999999    0.4785410000000000 Cl
   0.1978020000000000    0.8118340000000001    0.9940830000000000 Cl
   0.9671220000000000    0.9834450000000000    0.6931410000000000 Cl
   0.4799300000000001    0.4595609999999999    0.1905160000000000 Cl
   0.5012610000000001    0.4675130000000000    0.7842090000000000 Cl
   0.9800260000000001    0.9933879999999999    0.2878010000000000 Cl
