Cs2 Ni1 Ag1 Cl6
1.0
  -0.0000000000000000   -0.0000000000000000    7.0141971600000002
   3.9134491565635496    5.8250024968511456    0.0036549418346876
  -6.2888206637589761   -0.0000000000000000   -3.5030433801008720
Ag Cl Cs Ni
1 6 2 1
direct
   0.0041704999999999    0.0018935000000000    0.0025299999999999 Ag
   0.2571015000000000    0.7467945000000000    0.0006030000000000 Cl
   0.7218595000000001    0.7205450000000000    0.4399525000000000 Cl
   0.2832634999999999    0.2814970000000000    0.5613305000000000 Cl
   0.7484340000000000    0.2554145000000000    0.0007175000000000 Cl
   0.2564155000000000    0.2542650000000000    0.0005525000000000 Cl
   0.7494590000000001    0.7476645000000000    0.0010455000000001 Cl
   0.2528954999999999    0.7513149999999998    0.5008634999999999 Cs
   0.7532340000000002    0.2513205000000000    0.5010605000000001 Cs
   0.5018244999999999    0.5003409999999999    0.0004444999999999 Ni
