Cs2 Ge1 Pt1 Cl6
1.0
   6.2447535935957150   -0.0000000000000000    3.5970527800554217
  -2.0826113712122067    5.8874845090790284    3.5965343201707265
  -4.1621422223835083   -5.8874845090790284    0.0198647047738518
Cl Cs Ge Pt
6 2 1 1
direct
   0.2552305000000002    0.2528430000000002    0.5078805000000002 Cl
   0.2553685000000002    0.7415900000000001    0.9970725000000003 Cl
   0.7440654999999999    0.2532109999999999    0.9977664999999999 Cl
   0.7442415000000000    0.7421065000000000    0.4871130000000001 Cl
   0.2563120000000000    0.2542075000000000    0.9983495000000000 Cl
   0.7428580000000000    0.7393730000000002    0.9955840000000000 Cl
   0.7497695000000002    0.2462825000000001    0.4963440000000002 Cs
   0.2495325000000002    0.7471030000000001    0.4967625000000001 Cs
   0.9995855000000000    0.9966729999999999    0.9966545000000000 Ge
   0.4995950000000001    0.4968135000000000    0.9968725000000001 Pt
