Cs2 Na1 Fe1 Cl6
1.0
  -6.2892349011297703    0.0000000000000000   -3.6302466640157465
   2.0963290879737930   -5.9299251819908836    3.6311905976821195
  -2.0963290879737930    5.9299251819908836    3.6311535923178808
Cl Cs Fe Na
6 2 1 1
direct
   0.2322105000000001    0.4664040000000000    0.2330085000000001 Cl
   0.7655435000000000    0.0003035000000000    0.7671265000000000 Cl
   0.2319400000000000    0.9997775000000002    0.2328190000000001 Cl
   0.7652175000000000    0.5337755000000000    0.7668775000000000 Cl
   0.7660184999999999    0.0005089999999999    0.2335084999999999 Cl
   0.2314269999999999    0.9996175000000000    0.7662930000000001 Cl
   0.7488625000000000    0.5000555000000000    0.2499555000000000 Cs
   0.2488420000000000    0.5000595000000001    0.7499160000000000 Cs
   0.9985270000000001    0.0000769999999999    0.9999629999999999 Fe
   0.4988565000000000    0.0000630000000000    0.4999515000000000 Na
