Cs2 Cr1 Pt1 Cl6
1.0
   1.1484613376756077    5.9075315223124587    0.9370867957894298
  -0.0000000000000000   -0.0000000000000000   -6.8874369499999997
  -6.9139839793266811   -0.0000000000000000    2.4068280162720312
Cl Cr Cs Pt
6 1 2 1
direct
   0.7500060000000000    0.8104399999999998    0.1519674999999999 Cl
   0.7859955000000002    0.8152345000000001    0.6789635000000002 Cl
   0.2186750000000000    0.1727209999999999    0.3136390000000001 Cl
   0.2536980000000000    0.1737710000000000    0.8389715000000000 Cl
   0.2338330000000000    0.6586159999999999    0.8940475000000000 Cl
   0.7706664999999999    0.3259465000000000    0.0937414999999999 Cl
   0.0027790000000000    0.9929220000000000    0.9966370000000000 Cr
   0.7697790000000000    0.2758020000000000    0.5731110000000000 Cs
   0.2340000000000000    0.7110770000000000    0.4158795000000000 Cs
   0.5018415000000001    0.4921455000000001    0.9944310000000001 Pt
