Cs2 Mg1 Sn1 Cl6
1.0
  -4.3185023390696067   -6.1121786858563656   -0.0007697671518656
  -2.1662624348374133    6.1121786858563656   -3.7462150563615477
   6.4847647739070204    0.0000000000000000   -3.7459156814865864
Cl Cs Mg Sn
6 2 1 1
direct
   0.0020459999999999    0.7661800000000001    0.7663929999999999 Cl
   0.0002789999999997    0.7659324999999999    0.2375734999999998 Cl
   0.0000090000000001    0.2372505000000001    0.7656680000000000 Cl
   0.9976090000000000    0.2359765000000000    0.2359605000000000 Cl
   0.5272690000000000    0.7649989999999999    0.7650324999999999 Cl
   0.4719909999999998    0.2368314999999999    0.2366744999999999 Cl
   0.4993799999999999    0.2517275000000000    0.7514365000000001 Cs
   0.4992680000000000    0.7514350000000001    0.2516085000000001 Cs
   0.9997510000000001    0.0013940000000000    0.0013395000000000 Mg
   0.9997290000000000    0.5014154999999999    0.5013495000000000 Sn
