Cs2 K1 Bi1 Cl6
1.0
   6.7814447462456915   -0.0000000000000000    3.8588130255560387
  -0.0000000000000000   -0.0000000000000000   -7.8692571850000004
  -2.1619581924595805    6.6510880620345070    3.7950647419076464
Bi Cl Cs K
1 6 2 1
direct
   0.9990530000000000    0.0000974999999999    0.9982334999999999 Bi
   0.7410464999999999    0.5274840000000001    0.7943285000000000 Cl
   0.1551410000000000    0.9606460000000000    0.6874600000000000 Cl
   0.8430589999999999    0.0402140000000000    0.3087970000000000 Cl
   0.2605145000000000    0.4722400000000000    0.1996295000000000 Cl
   0.2903015000000000    0.9926065000000001    0.1725330000000000 Cl
   0.7054594999999999    0.0095200000000002    0.8288055000000000 Cl
   0.2510465000000000    0.5007200000000001    0.7602944999999999 Cs
   0.7469930000000000    0.5008625000000002    0.2387955000000000 Cs
   0.4994445000000001    0.9996620000000001    0.4985815000000000 K
