Cs2 Cr1 Fe1 Cl6
1.0
   6.1951852605863502   -0.0000000000000000   -3.4835676590078828
  -1.9623611327980244    5.8812163886834155   -3.4906741385408275
   4.2328241277883256    5.8812163886834155    0.2789882174512890
Cl Cr Cs Fe
6 1 2 1
direct
   0.7608630000000000    0.7659020000000001    0.9953480000000000 Cl
   0.2389950000000001    0.7662755000000000    0.9952909999999999 Cl
   0.7607260000000002    0.2427780000000002    0.9962449999999998 Cl
   0.2383999999999999    0.2434930000000000    0.9956590000000001 Cl
   0.7191315000000000    0.7244200000000001    0.5556999999999999 Cl
   0.2780370000000000    0.2850675000000001    0.4370649999999999 Cl
   0.9996409999999999    0.0035160000000000    0.9957990000000000 Cr
   0.7490969999999999    0.2547715000000001    0.4957870000000000 Cs
   0.2491205000000000    0.7549960000000000    0.4956700000000000 Cs
   0.4983755000000001    0.5019115000000001    0.9965909999999999 Fe
