Cs2 Ba1 V1 Cl6
1.0
  -2.2296317266852417    6.2566272249545571   -3.8340003491589552
  -2.2296317266852417    6.2566272249545571    3.8606440008410448
   4.5070483274232540    6.2566272249545571   -0.0171264875856401
Ba Cl Cs V
1 6 2 1
direct
   0.0011424999999997    0.0047665000000002    0.9966124999999999 Ba
   0.7565294999999999    0.2562805000000002    0.6943525000000000 Cl
   0.7077979999999999    0.7520375000000000    0.2870165000000000 Cl
   0.2938225000000000    0.2582044999999999    0.7039515000000003 Cl
   0.2464009999999999    0.7525860000000000    0.2978950000000000 Cl
   0.7210105000000000    0.3202440000000001    0.2284820000000000 Cl
   0.2828215000000001    0.6897389999999999    0.7638430000000000 Cl
   0.2498815000000000    0.2548215000000000    0.2514625000000000 Cs
   0.7521880000000001    0.7548465000000001    0.7421524999999999 Cs
   0.5014704999999997    0.5045755000000003    0.4965954999999999 V
