Cs2 Rb1 Tl1 Cl6
1.0
  -0.0000000000000000   -0.0000000000000000    7.6754151200000003
  -2.2721115383209547    6.4759562092328684    3.5498756654706769
  -7.1862180187722453   -0.0000000000000000    3.6737078093970914
Cl Cs Rb Tl
6 2 1 1
direct
   0.3531620000000001    0.7520560000000002    0.1999900000000000 Cl
   0.2765074999999999    0.7773885000000001    0.6797190000000000 Cl
   0.7212979999999999    0.2189350000000000    0.3215870000000002 Cl
   0.6419750000000002    0.2426050000000000    0.8020344999999999 Cl
   0.1931004999999999    0.3463005000000001    0.6711454999999998 Cl
   0.8036895000000001    0.6503975000000000    0.3298165000000000 Cl
   0.7374879999999999    0.7600510000000001    0.7384864999999999 Cs
   0.2579020000000002    0.2363090000000000    0.2628680000000001 Cs
   0.9976705000000001    0.9987425000000000    0.0003310000000001 Rb
   0.4983715000000000    0.4982534999999999    0.5005355000000000 Tl
