Cs2 Na1 Y1 Cl6
1.0
  -6.5276569854368933    0.0000000000000000    3.7634046485981285
   0.0000000000000000    0.0000000000000000    7.5363207200000000
  -2.1748133394130527    6.1552175412021803    3.7669946369337213
Cl Cs Na Y
6 2 1 1
direct
   0.2509285000000001    0.2586810000000000    0.7415799999999999 Cl
   0.7474275000000001    0.2505340000000000    0.7415619999999999 Cl
   0.2533845000000000    0.7520810000000000    0.2517200000000000 Cl
   0.7476960000000000    0.7462170000000000    0.2526800000000000 Cl
   0.7429320000000000    0.2579885000000000    0.2491025000000000 Cl
   0.2586130000000000    0.7448595000000000    0.7456214999999999 Cl
   0.7497795000000000    0.7518625000000000    0.7476284999999999 Cs
   0.2496365000000000    0.2518359999999999    0.2476030000000000 Cs
   0.9998895000000001    0.0018089999999999    0.9971799999999998 Na
   0.5000865000000000    0.5016860000000001    0.4969179999999999 Y
