Cs2 Cd1 Fe1 Cl6
1.0
   4.1696874938117956    5.9250840716674666   -0.0697563932426108
   2.1257670874987475   -5.9250840716674666   -3.5886822040469935
  -6.2954545813105431   -0.0000000000000000   -3.5879598927103955
Cd Cl Cs Fe
1 6 2 1
direct
   0.0031040000000000    0.9986580000000000    0.0016110000000000 Cd
   0.4955965000000000    0.7445225000000001    0.7478569999999999 Cl
   0.9998360000000001    0.2504300000000000    0.7455289999999999 Cl
   0.0022599999999999    0.7456430000000001    0.2543599999999999 Cl
   0.5089285000000001    0.2534620000000001    0.2531665000000000 Cl
   0.0009304999999999    0.7330389999999999    0.7339214999999999 Cl
   0.0020330000000000    0.2650595000000000    0.2658884999999999 Cl
   0.5008550000000001    0.7488460000000001    0.2495879999999999 Cs
   0.5011610000000002    0.2486950000000002    0.7497199999999999 Cs
   0.0018009999999999    0.4985935000000000    0.5004494999999999 Fe
