Cs2 Ba1 Sn1 Cl6
1.0
  -2.1196473621690273    6.5638335584197423    3.9780882818329686
   0.0000000000000000    0.0000000000000000    7.9646283300000000
   7.0985306729260236    0.0000000000000000    3.9532366503975869
Ba Cl Cs Sn
1 6 2 1
direct
   0.0030455000000000    0.9987510000000001    0.9966484999999999 Ba
   0.7964709999999999    0.5149375000000000    0.6874165000000001 Cl
   0.6491150000000000    0.0782110000000000    0.1660070000000001 Cl
   0.3585635000000000    0.9071279999999999    0.8285655000000001 Cl
   0.2132445000000001    0.4821964999999997    0.3078220000000002 Cl
   0.2058780000000001    0.9949395000000001    0.3132075000000000 Cl
   0.7962840000000000    0.0046095000000000    0.6800365000000000 Cl
   0.7602135000000000    0.4904334999999999    0.2668880000000001 Cs
   0.2460485000000000    0.5109420000000000    0.7281385000000001 Cs
   0.5028350000000000    0.9982684999999999    0.4969105000000001 Sn
