Cs2 In1 Ag1 Cl6
1.0
   0.0000000000000000    5.3402000000000003    5.3402000000000003
   5.3402000000000003    0.0000000000000000    5.3402000000000003
   5.3402000000000003    5.3402000000000003    0.0000000000000000
Cs In Ag Cl
2 1 1 6
direct
   0.7500000000000000    0.7500000000000000    0.7500000000000000 Cs
   0.2500000000000000    0.2500000000000000    0.2500000000000000 Cs
   0.0000000000000000    0.0000000000000000    0.0000000000000000 In
   0.5000000000000000    0.5000000000000000    0.5000000000000000 Ag
   0.7593640000000000    0.2406360000000000    0.2406360000000000 Cl
   0.2406360000000000    0.2406360000000000    0.7593640000000000 Cl
   0.2406360000000000    0.7593640000000000    0.7593640000000000 Cl
   0.2406360000000000    0.7593640000000000    0.2406360000000000 Cl
   0.7593640000000000    0.2406360000000000    0.7593640000000000 Cl
   0.7593640000000000    0.7593640000000000    0.2406360000000000 Cl
