Cs2 Tl1 Co1 Cl6
1.0
   2.1352102689384460   -6.0492025699146215    3.7009695603515085
   6.4150454339920513   -0.0000000000000000   -3.7008502366802616
   6.4150454339920522   -0.0000000000000000    3.7096827833197383
Cl Co Cs Tl
6 1 2 1
direct
   0.2163200000000001    0.7821595000000000    0.0012419999999999 Cl
   0.2159785000000001    0.2159240000000001    0.0019439999999999 Cl
   0.7821935000000000    0.7823700000000001    0.0011250000000000 Cl
   0.7820655000000001    0.2160960000000000    0.0018170000000000 Cl
   0.7822675000000000    0.7820624999999999    0.4350809999999999 Cl
   0.2158300000000001    0.2161785000000000    0.5682959999999999 Cl
   0.9989975000000000    0.9990855000000000    0.0018890000000000 Co
   0.2489315000000001    0.7490354999999997    0.5018170000000001 Cs
   0.7489845000000001    0.2489019999999999    0.5018759999999999 Cs
   0.4989495000000000    0.4990465000000000    0.0018459999999999 Tl
