Cs2 Ca1 Ti1 Cl6
1.0
   6.4192039372962135   -0.0000000000000000    3.7021549879691249
  -0.0000000000000000   -0.0000000000000000    7.4110687000000004
   2.1402103024881267   -6.0581944519342406    3.7037645708088620
Ca Cl Cs Ti
1 6 2 1
direct
   0.9983730000000001    0.9986940000000000    0.0043880000000002 Ca
   0.7405135000000002    0.2570685000000000    0.2608840000000000 Cl
   0.2543545000000000    0.7412805000000001    0.2629485000000000 Cl
   0.7414395000000001    0.2572865000000000    0.7459055000000000 Cl
   0.2558610000000001    0.7411480000000000    0.7472845000000000 Cl
   0.2554205000000001    0.2569895000000000    0.7465555000000000 Cl
   0.7404490000000001    0.7416920000000000    0.2621415000000000 Cl
   0.2473875000000000    0.2502294999999999    0.2543394999999999 Cs
   0.7486790000000001    0.7488349999999999    0.7531090000000000 Cs
   0.4981475000000000    0.4992585000000000    0.5038644999999999 Ti
