Cs4 Co2 Pt2 Cl12
1.0
   3.7287305062341685   -4.9740220450109733    3.0712224138890014
  -7.4380149344240154   -0.0000000000000000    6.1742444833157979
  -3.7092844281898469   -4.9740220450109733   -7.7969132527951999
Cs Co Pt Cl
4 2 2 12
direct
   0.5007790000000000    0.9393419999999999    0.7143969999999999 Cs
   0.9188359999999998    0.5152879999999999    0.2671990000000000 Cs
   0.9951329999999999    0.5582509999999999    0.7848160000000000 Cs
   0.5788199999999999    0.9810079999999999    0.2319770000000001 Cs
   0.0750679999999999    0.1201040000000000    0.9329490000000000 Co
   0.4189160000000000    0.3765200000000000    0.5631370000000000 Co
   0.4609519999999999    0.4820260000000000    0.9836940000000001 Pt
   0.0359139999999999    0.0152919999999999    0.5153260000000001 Pt
   0.3521389999999999    0.2807199999999998    0.0565390000000000 Cl
   0.8961699999999999    0.8121749999999999    0.5683610000000000 Cl
   0.1771019999999999    0.9141490000000000    0.9401600000000000 Cl
   0.6749949999999999    0.3352299999999999    0.4680630000000000 Cl
   0.8213639999999998    0.1612379999999999    0.0306810000000001 Cl
   0.3201109999999999    0.5838469999999999    0.5589819999999999 Cl
   0.6024920000000000    0.6860210000000000    0.9325520000000000 Cl
   0.1420159999999999    0.2156569999999999    0.4399860000000001 Cl
   0.9682679999999999    0.1597400000000000    0.7126630000000000 Cl
   0.3947459999999999    0.6165559999999998    0.1805900000000000 Cl
   0.5252709999999998    0.3382539999999999    0.7844210000000000 Cl
   0.1072359999999998    0.8789649999999999    0.3215330000000000 Cl
