Cs4 Mn2 Au2 Cl12
1.0
   2.0193985592188572   -6.0442813914523494    3.5888339924811148
   6.3781447697925397   -0.0000000000000000   -3.5946487171266597
   4.3587462105736829    6.0442813914523494    7.7574886303922259
Cs Mn Au Cl
4 2 2 12
direct
   0.5010289999999999    0.0026400000000000    0.2497630000000000 Cs
   0.9990650000000001    0.5023469999999999    0.7500310000000000 Cs
   0.9992110000000000    0.5025590000000000    0.2503370000000000 Cs
   0.5006350000000001    0.0020979999999999    0.7501830000000000 Cs
   0.4977920000000001    0.5022409999999999    0.9985750000000001 Mn
   0.0023810000000001    0.0023909999999999    0.5000520000000001 Mn
   0.9987410000000001    0.0023479999999999    0.9998680000000001 Au
   0.5008750000000001    0.5029390000000000    0.4992440000000000 Au
   0.2781570000000001    0.7217479999999999    0.9994960000000001 Cl
   0.7240230000000000    0.2789010000000000    0.4994930000000000 Cl
   0.2233049999999999    0.2251900000000000    0.0007500000000000 Cl
   0.7805320000000000    0.7839710000000000    0.5005210000000000 Cl
   0.7751560000000001    0.7787279999999999    0.9991820000000000 Cl
   0.2215090000000000    0.2227520000000001    0.5000260000000000 Cl
   0.2770740000000000    0.7264699999999999    0.4993780000000000 Cl
   0.7195290000000001    0.2840629999999998    0.9983340000000002 Cl
   0.0014100000000000    0.0023990000000000    0.2877910000000000 Cl
   0.4981100000000001    0.5017210000000000    0.7866530000000000 Cl
   0.4997360000000000    0.5029990000000001    0.2110250000000000 Cl
   0.0021260000000000    0.0024570000000000    0.7123240000000001 Cl
