Cs2 Li1 Tm1 Cl6
1.0
   0.0000000000000000    5.2873510000000001    5.2873510000000001
   5.2873510000000001    0.0000000000000000    5.2873510000000001
   5.2873510000000001    5.2873510000000001    0.0000000000000000
Cs Li Tm Cl
2 1 1 6
direct
   0.7500000000000000    0.7500000000000000    0.7500000000000000 Cs
   0.2500000000000000    0.2500000000000000    0.2500000000000000 Cs
   0.5000000000000000    0.5000000000000000    0.5000000000000000 Li
   0.0000000000000000    0.0000000000000000    0.0000000000000000 Tm
   0.7526020000000000    0.2473980000000000    0.2473980000000000 Cl
   0.2473980000000000    0.2473980000000000    0.7526020000000000 Cl
   0.2473980000000000    0.7526020000000000    0.7526020000000000 Cl
   0.2473980000000000    0.7526020000000000    0.2473980000000000 Cl
   0.7526020000000000    0.2473980000000000    0.7526020000000000 Cl
   0.7526020000000000    0.7526020000000000    0.2473980000000000 Cl
