Cs2 K1 Sb1 Cl6
1.0
   0.0000000000000000    5.6947919999999996    5.6947919999999996
   5.6947919999999996    0.0000000000000000    5.6947919999999996
   5.6947919999999996    5.6947919999999996    0.0000000000000000
Cs K Sb Cl
2 1 1 6
direct
   0.7500000000000000    0.7500000000000000    0.7500000000000000 Cs
   0.2500000000000000    0.2500000000000000    0.2500000000000000 Cs
   0.5000000000000000    0.5000000000000000    0.5000000000000000 K
   0.0000000000000000    0.0000000000000000    0.0000000000000000 Sb
   0.7658620000000000    0.2341380000000000    0.2341380000000000 Cl
   0.2341380000000000    0.2341380000000000    0.7658620000000000 Cl
   0.2341380000000000    0.7658620000000000    0.7658620000000000 Cl
   0.2341380000000000    0.7658620000000000    0.2341380000000000 Cl
   0.7658620000000000    0.2341380000000000    0.7658620000000000 Cl
   0.7658620000000000    0.7658620000000000    0.2341380000000000 Cl
