Cs2 Sr1 V1 Cl6
1.0
  -6.5099323743310915    0.0000000000000000    3.7562653104822137
  -2.1668602268357411    6.1410288935548349   -3.7593050461387132
   2.1668602268357411   -6.1410288935548349   -3.7606522038612868
Cl Cs Sr V
6 2 1 1
direct
   0.2634215000000000    0.7312015000000001    0.9980720000000000 Cl
   0.7335115000000000    0.7320944999999998    0.0019179999999998 Cl
   0.2640199999999999    0.2642819999999999    0.0002989999999999 Cl
   0.7351704999999999    0.2667049999999999    0.0052569999999998 Cl
   0.7295100000000000    0.7332144999999999    0.4684159999999998 Cl
   0.2671355000000000    0.2628694999999999    0.5337939999999999 Cl
   0.7484605000000000    0.2482669999999999    0.5018839999999998 Cs
   0.2483755000000001    0.7482929999999999    0.5018330000000000 Cs
   0.9985680000000000    0.9983154999999998    0.0010739999999998 Sr
   0.4983930000000000    0.4981734999999997    0.0009909999999997 V
