Cs4 Cu2 Pt2 Cl12
1.0
   2.3538080777737753   -5.8586884838601527    3.7734230984296477
   6.4290041041058288   -0.0000000000000000   -3.9995074121767851
   4.0751960263320530    5.8586884838601527    6.5676026793935680
Cs Cu Pt Cl
4 2 2 12
direct
   0.4966730000000000    0.9903000000000001    0.2479130000000000 Cs
   0.9964110000000000    0.5139860000000001    0.7475630000000000 Cs
   0.9958150000000000    0.5137610000000001    0.2564049999999999 Cs
   0.4952970000000000    0.9900730000000001    0.7560350000000000 Cs
   0.9942260000000001    0.0895810000000000    0.0018910000000000 Cu
   0.4942420000000000    0.4171860000000001    0.5016790000000001 Cu
   0.4959750000000001    0.4966120000000000    0.0021870000000000 Pt
   0.9957590000000001    0.0075180000000000    0.5015920000000000 Pt
   0.2740210000000001    0.7129890000000000    0.0034910000000000 Cl
   0.7703460000000000    0.2274490000000001    0.5014079999999999 Cl
   0.2708320000000001    0.2755530000000000    0.0029789999999999 Cl
   0.7740490000000000    0.7907030000000000    0.5022230000000000 Cl
   0.7179960000000000    0.7127460000000001    0.0020750000000000 Cl
   0.2206740000000000    0.2275370000000001    0.5005050000000000 Cl
   0.7211240000000001    0.2753660000000000    0.9999850000000000 Cl
   0.2186280000000000    0.7912060000000001    0.5020620000000000 Cl
   0.9952190000000000    0.9966290000000000    0.2157210000000000 Cl
   0.4945630000000000    0.4997900000000000    0.7159100000000000 Cl
   0.4972430000000000    0.4997500000000001    0.2876080000000000 Cl
   0.9949840000000000    0.9996420000000001    0.7868490000000000 Cl
