Cs4 Zn2 Cr2 Cl12
1.0
  -6.3518326051894878    0.0000000000000000    3.7129377379061057
  -2.2146261245015437    5.9659258067591292   -3.7277182246177389
  -4.1372064806879436   -5.9659258067591292   -7.0894533974761558
Cs Zn Cr Cl
4 2 2 12
direct
   0.0125900000000000    0.4894619999999999    0.7499300000000000 Cs
   0.4948779999999998    0.0077490000000002    0.2499430000000000 Cs
   0.4945329999999998    0.0077020000000000    0.7496200000000000 Cs
   0.0121369999999997    0.4898510000000001    0.2495220000000000 Cs
   0.5071980000000000    0.5728059999999999    0.9999500000000000 Zn
   0.9308709999999999    0.9939560000000001    0.4999930000000000 Zn
   0.0009929999999999    0.0018280000000000    0.9998480000000001 Cr
   0.4995119999999999    0.4998620000000001    0.4999770000000001 Cr
   0.2345889999999998    0.7633040000000003    0.0000580000000001 Cl
   0.7392169999999999    0.2668600000000000    0.5002780000000000 Cl
   0.7748300000000000    0.7613819999999999    0.9975809999999999 Cl
   0.2802979999999999    0.2727830000000001    0.4993950000000000 Cl
   0.2290919999999996    0.2202510000000003    0.0003550000000001 Cl
   0.7416779999999998    0.7257820000000001    0.5009330000000001 Cl
   0.7738690000000000    0.2207810000000000    0.9998370000000000 Cl
   0.2807279999999999    0.7276460000000001    0.4990030000000001 Cl
   0.0031209999999999    0.9948150000000000    0.7122350000000001 Cl
   0.5085809999999998    0.5000440000000002    0.2118030000000001 Cl
   0.5065260000000000    0.4991389999999999    0.7878540000000001 Cl
   0.0016729999999998    0.9943800000000002    0.2875400000000001 Cl
