Cs2 Cr1 Cd1 Cl6
1.0
   6.3422507576184630   -0.0000000000000000    3.6044287407203739
  -2.1408319964193856    5.9640223850294660    3.6158400741412473
  -4.2014187611990774   -5.9640223850294660    0.0772783451383789
Cd Cl Cr Cs
1 6 1 2
direct
   0.9993520000000000    0.9945919999999999    0.9963860000000000 Cd
   0.2554985000000002    0.2513300000000001    0.5057475000000002 Cl
   0.2533840000000000    0.7416480000000000    0.9974540000000001 Cl
   0.7457965000000000    0.2503430000000001    0.9965605000000001 Cl
   0.7455714999999999    0.7419785000000000    0.4895130000000000 Cl
   0.2642060000000000    0.2592725000000000    0.9957375000000001 Cl
   0.7350724999999999    0.7325585000000000    0.9987729999999999 Cl
   0.4994529999999999    0.4958184999999999    0.9974924999999999 Cr
   0.7505605000000000    0.2465960000000000    0.4972694999999999 Cs
   0.2502599999999999    0.7462790000000000    0.4970360000000000 Cs
