Cs2 Na1 Rh1 Cl6
1.0
   6.2565321014798476   -0.0000000000000000    3.6080183379128781
  -2.0842173190460120    5.9052947551925596   -3.6090442819974276
  -6.2565321014798476   -0.0000000000000000    3.6247497720871222
Cl Cs Na Rh
6 2 1 1
direct
   0.0009980000000001    0.7333575000000000    0.2715580000000002 Cl
   0.0004800000000000    0.7328840000000000    0.7331460000000000 Cl
   0.0034670000000000    0.2716155000000000    0.2723670000000000 Cl
   0.0021430000000000    0.2715710000000000    0.7340520000000000 Cl
   0.5390590000000001    0.2707600000000000    0.2725075000000001 Cl
   0.4635570000000001    0.7334415000000000    0.7330870000000000 Cl
   0.5009600000000001    0.7520830000000001    0.2518875000000000 Cs
   0.5011960000000000    0.2517760000000000    0.7527075000000000 Cs
   0.0007980000000001    0.0018445000000000    0.0020670000000000 Na
   0.0014090000000001    0.5021085000000001    0.5025360000000001 Rh
