Cs2 Na1 Bi1 Cl6
1.0
   0.0000000000000000    5.5298530000000001    5.5298530000000001
   5.5298530000000001    0.0000000000000000    5.5298530000000001
   5.5298530000000001    5.5298530000000001    0.0000000000000000
Cs Na Bi Cl
2 1 1 6
direct
   0.7500000000000000    0.7500000000000000    0.7500000000000000 Cs
   0.2500000000000000    0.2500000000000000    0.2500000000000000 Cs
   0.5000000000000000    0.5000000000000000    0.5000000000000000 Na
   0.0000000000000000    0.0000000000000000    0.0000000000000000 Bi
   0.7536020000000000    0.2463980000000000    0.2463980000000000 Cl
   0.2463980000000000    0.2463980000000000    0.7536020000000000 Cl
   0.2463980000000000    0.7536020000000000    0.7536020000000000 Cl
   0.2463980000000000    0.7536020000000000    0.2463980000000000 Cl
   0.7536020000000000    0.2463980000000000    0.7536020000000000 Cl
   0.7536020000000000    0.7536020000000000    0.2463980000000000 Cl
