Cs4 Ti2 Tl2 Cl12
1.0
  -6.6194811852239583    0.0000000000000000    3.7834674941501456
  -2.2288523774510756    6.2636927859982867   -3.9298239684157439
  -4.3906288077728828   -6.2636927859982867   -7.6920475774341099
Cs Ti Tl Cl
4 2 2 12
direct
   0.9789819999999999    0.4953970000000001    0.7493520000000000 Cs
   0.5209100000000000    0.9939880000000002    0.2504270000000001 Cs
   0.4784109999999999    0.0043880000000000    0.7528490000000000 Cs
   0.0203150000000000    0.5003249999999999    0.2540519999999999 Cs
   0.0002229999999998    0.9976790000000001    0.0021850000000001 Ti
   0.4993669999999999    0.4996170000000001    0.5004670000000000 Ti
   0.5003049999999999    0.4982270000000002    0.0007180000000001 Tl
   0.9993420000000000    0.9989700000000001    0.5019960000000001 Tl
   0.2491399999999997    0.7999060000000002    0.0189780000000002 Cl
   0.6998869999999999    0.2586160000000001    0.5204290000000000 Cl
   0.8015719999999998    0.7553630000000002    0.0246130000000002 Cl
   0.2513889999999999    0.3002360000000002    0.5205870000000001 Cl
   0.1990050000000000    0.2403110000000000    0.9797350000000000 Cl
   0.7469259999999999    0.6988400000000001    0.4805480000000001 Cl
   0.7518929999999999    0.1957850000000000    0.9859610000000000 Cl
   0.2989379999999999    0.7405150000000000    0.4806740000000000 Cl
   0.9913339999999999    0.9586100000000001    0.7807840000000000 Cl
   0.5006789999999999    0.4584240000000002    0.2797180000000001 Cl
   0.4982949999999998    0.5406450000000000    0.7212760000000000 Cl
   0.0083969999999998    0.0368610000000002    0.2232450000000001 Cl
