Cs2 K1 V1 Cl6
1.0
  -2.1453367357459072    6.1783706667499576    3.7392447156683759
   6.5523658198672301    0.0000000000000000    3.7576968571612084
   0.0000000000000000    0.0000000000000000   -7.5858751350000002
Cl Cs K V
6 2 1 1
direct
   0.7215920000000000    0.7210455000000000    0.4480424999999999 Cl
   0.7213050000000000    0.2774105000000000    0.9998714999999999 Cl
   0.2793040000000000    0.7207530000000001    0.9984810000000000 Cl
   0.2796720000000000    0.2768625000000000    0.5499844999999999 Cl
   0.2750855000000000    0.2765855000000000    0.9940150000000001 Cl
   0.7260404999999999    0.7212584999999999    0.0039739999999998 Cl
   0.7508960000000000    0.2487404999999999    0.4990574999999997 Cs
   0.2509060000000000    0.7484070000000000    0.4990069999999999 Cs
   0.0004240000000000    0.9992025000000000    0.9989034999999999 K
   0.5004379999999999    0.4990990000000000    0.9990169999999998 V
