Cs2 Cd1 Ni1 Cl6
1.0
   1.9673462099540533   -5.9034506251590448    3.5011273231705027
   6.2227221427359201   -0.0000000000000000   -3.5006927497356082
  -1.9673462099540533    5.9034506251590448    3.7793939568294976
Cd Cl Cs Ni
1 6 2 1
direct
   0.9989660000000000    0.0017440000000000    0.0005480000000000 Cd
   0.2707170000000000    0.7301954999999999    0.0008120000000000 Cl
   0.2720830000000000    0.2741980000000000    0.0021800000000000 Cl
   0.7279530000000001    0.7305499999999998    0.0020700000000000 Cl
   0.7279665000000000    0.2749730000000000    0.0026740000000000 Cl
   0.2366500000000000    0.2387490000000000    0.4752530000000000 Cl
   0.7632400000000000    0.7648584999999999    0.5277920000000001 Cl
   0.7506629999999999    0.2527230000000000    0.5033069999999999 Cs
   0.2508265000000001    0.7528805000000000    0.5032130000000001 Cs
   0.4960110000000000    0.5007150000000000    0.9965340000000000 Ni
