Cs2 Li1 Sm1 Cl6
1.0
   0.0000000000000000    5.3619899999999996    5.3619899999999996
   5.3619899999999996    0.0000000000000000    5.3619899999999996
   5.3619899999999996    5.3619899999999996    0.0000000000000000
Cs Li Sm Cl
2 1 1 6
direct
   0.7500000000000000    0.7500000000000000    0.7500000000000000 Cs
   0.2500000000000000    0.2500000000000000    0.2500000000000000 Cs
   0.5000000000000000    0.5000000000000000    0.5000000000000000 Li
   0.0000000000000000    0.0000000000000000    0.0000000000000000 Sm
   0.7475740000000000    0.2524260000000000    0.2524260000000000 Cl
   0.2524260000000000    0.2524260000000000    0.7475740000000000 Cl
   0.2524260000000000    0.7475740000000000    0.7475740000000000 Cl
   0.2524260000000000    0.7475740000000000    0.2524260000000000 Cl
   0.7475740000000000    0.2524260000000000    0.7475740000000000 Cl
   0.7475740000000000    0.7475740000000000    0.2524260000000000 Cl
