Cs4 In2 Cu2 Cl12
1.0
   2.7038143889002253   -5.9655819326923885    3.0193679616160645
   6.5575796821214656   -0.0000000000000000   -3.0373716303885221
   3.8537652932212403    5.9655819326923885    8.3264991579954142
Cs In Cu Cl
4 2 2 12
direct
   0.5028140000000000    0.9832430000000000    0.2522250000000000 Cs
   0.9969290000000001    0.5151680000000000    0.7522380000000000 Cs
   0.9849059999999999    0.5043679999999999    0.2540060000000000 Cs
   0.5148570000000000    0.9932430000000000    0.7541340000000000 Cs
   0.4920639999999999    0.4897649999999999    0.9996100000000000 In
   0.0078070000000001    0.0089659999999999    0.4994620000000001 In
   0.0477110000000002    0.0480759999999999    0.9534070000000001 Cu
   0.4522949999999999    0.4518769999999999    0.4534429999999999 Cu
   0.2035190000000000    0.7606860000000000    0.0083330000000000 Cl
   0.7411939999999999    0.2997449999999999    0.5108320000000000 Cl
   0.2525450000000001    0.2587050000000000    0.0054390000000000 Cl
   0.7823500000000000    0.7850449999999999    0.5071130000000001 Cl
   0.7177739999999999    0.7134750000000001    0.0070280000000000 Cl
   0.2470180000000000    0.2403090000000001    0.5052179999999999 Cl
   0.2966920000000001    0.7385439999999999    0.5083900000000000 Cl
   0.7582190000000001    0.1985160000000000    0.0112490000000000 Cl
   0.0075410000000001    0.0097629999999999    0.2738670000000000 Cl
   0.4921430000000001    0.4870180000000000    0.7740200000000000 Cl
   0.4833910000000001    0.4824340000000000    0.2372850000000000 Cl
   0.0165560000000002    0.0164039999999999    0.7372510000000001 Cl
