Cs2 Cu1 Sn1 Cl6
1.0
   1.9825399639326728   -5.9477402286698062   -3.6622888642359928
  -1.9825399639326728    5.9477402286698062   -3.6671582057640069
   6.2786237446744115   -0.0000000000000000    3.6612763735132638
Cl Cs Cu Sn
6 2 1 1
direct
   0.7556569999999998    0.5111254999999999    0.7591729999999999 Cl
   0.2342435000000000    0.9941595000000000    0.2372145000000000 Cl
   0.7637060000000000    0.9974250000000000    0.7656240000000000 Cl
   0.2430509999999999    0.4821485000000001    0.2442400000000000 Cl
   0.7560580000000000    0.9944470000000000    0.2432900000000000 Cl
   0.2427569999999999    0.9978604999999999    0.7597300000000000 Cl
   0.7492255000000000    0.4956379999999999    0.2518724999999999 Cs
   0.2488239999999999    0.4960719999999998    0.7511379999999996 Cs
   0.9957929999999999    0.9919540000000000    0.9988659999999999 Cu
   0.4985445000000002    0.9953045000000000    0.5008235000000000 Sn
