Cs2 Rb1 Sc1 Cl6
1.0
  -0.0000000000000000   -0.0000000000000000    7.6483243600000002
   2.2853038946780129   -6.3387221201037063    3.6480899573140313
   6.9451772354355796   -0.0000000000000000    3.6907608564568042
Cl Cs Rb Sc
6 2 1 1
direct
   0.2177079999999999    0.3426965000000000    0.6723490000000001 Cl
   0.7170350000000001    0.2488579999999999    0.3111550000000000 Cl
   0.2788420000000000    0.7601289999999999    0.6852090000000001 Cl
   0.7777680000000000    0.6654964999999999    0.3258830000000000 Cl
   0.3431539999999999    0.7513945000000000    0.2167620000000000 Cl
   0.6526610000000000    0.2555474999999999    0.7805390000000001 Cl
   0.2537075000000000    0.2472069999999998    0.2555295000000000 Cs
   0.7427160000000002    0.7603675000000000    0.7413009999999999 Cs
   0.9980400000000000    0.0036549999999999    0.9985800000000001 Rb
   0.4978980000000000    0.5039390000000000    0.4986810000000001 Sc
