Cs2 Cu1 Ag1 Cl6
1.0
  -1.5923164246052166    5.9194766219089274   -3.6444457211657113
  -6.1259695520365094    0.0000000000000000    3.6505080637434686
   6.1259695520365094    0.0000000000000000    3.7979931112565311
Ag Cl Cs Cu
1 6 2 1
direct
   0.0038915000000000    0.9987760000000000    0.9998210000000001 Ag
   0.7129129999999999    0.2864364999999998    0.9969620000000000 Cl
   0.7411740000000000    0.7385069999999999    0.9997829999999999 Cl
   0.2640920000000000    0.2607889999999998    0.9997870000000000 Cl
   0.2906220000000000    0.7111570000000000    0.9997270000000000 Cl
   0.2274700000000000    0.2241690000000000    0.4480180000000000 Cl
   0.7790685000000001    0.7744735000000000    0.5513610000000001 Cl
   0.7535105000000000    0.2493199999999999    0.4991320000000000 Cs
   0.2529745000000000    0.7492225000000001    0.4988980000000001 Cs
   0.5015195000000000    0.4985734999999999    0.9981460000000000 Cu
