Cs2 Li1 Gd1 Cl6
1.0
   0.0000000000000000    5.3356760000000003    5.3356760000000003
   5.3356760000000003    0.0000000000000000    5.3356760000000003
   5.3356760000000003    5.3356760000000003    0.0000000000000000
Cs Li Gd Cl
2 1 1 6
direct
   0.7500000000000000    0.7500000000000000    0.7500000000000000 Cs
   0.2500000000000000    0.2500000000000000    0.2500000000000000 Cs
   0.5000000000000000    0.5000000000000000    0.5000000000000000 Li
   0.0000000000000000    0.0000000000000000    0.0000000000000000 Gd
   0.7489180000000000    0.2510820000000000    0.2510820000000000 Cl
   0.2510820000000000    0.2510820000000000    0.7489180000000000 Cl
   0.2510820000000000    0.7489180000000000    0.7489180000000000 Cl
   0.2510820000000000    0.7489180000000000    0.2510820000000000 Cl
   0.7489180000000000    0.2510820000000000    0.7489180000000000 Cl
   0.7489180000000000    0.7489180000000000    0.2510820000000000 Cl
