Cs2 Ag1 Bi1 Cl6
1.0
  -6.5901192836608367    0.0000000000000000   -3.8026665408169578
   0.0000000000000000    0.0000000000000000   -7.6095712400000002
   2.1925378884580686   -6.2184532623716287   -3.8024949470884160
Ag Bi Cl Cs
1 1 6 2
direct
   0.9983050000000000    0.0012840000000000    0.9974800000000000 Ag
   0.4995095000000002    0.0001494999999998    0.4987160000000000 Bi
   0.2495840000000001    0.5021269999999998    0.2485790000000002 Cl
   0.7507045000000000    0.9985574999999999    0.2476510000000001 Cl
   0.2495355000000001    0.0005464999999999    0.7511200000000000 Cl
   0.7504535000000000    0.4980355000000000    0.7503290000000000 Cl
   0.7523850000000001    0.9992565000000000    0.7491235000000001 Cl
   0.2479374999999999    0.9990090000000001    0.2492165000000000 Cl
   0.7503575000000000    0.4995204999999999    0.2491530000000000 Cs
   0.2503025000000000    0.4994224999999999    0.7494490000000000 Cs
