Cs2 Ga1 Ag1 Cl6
1.0
   0.0000000000000000    5.2169010000000000    5.2169010000000000
   5.2169010000000000    0.0000000000000000    5.2169010000000000
   5.2169010000000000    5.2169010000000000    0.0000000000000000
Cs Ga Ag Cl
2 1 1 6
direct
   0.7500000000000000    0.7500000000000000    0.7500000000000000 Cs
   0.2500000000000000    0.2500000000000000    0.2500000000000000 Cs
   0.0000000000000000    0.0000000000000000    0.0000000000000000 Ga
   0.5000000000000000    0.5000000000000000    0.5000000000000000 Ag
   0.7673030000000000    0.2326970000000000    0.2326970000000000 Cl
   0.2326970000000000    0.2326970000000000    0.7673030000000000 Cl
   0.2326970000000000    0.7673030000000000    0.7673030000000000 Cl
   0.2326970000000000    0.7673030000000000    0.2326970000000000 Cl
   0.7673030000000000    0.2326970000000000    0.7673030000000000 Cl
   0.7673030000000000    0.7673030000000000    0.2326970000000000 Cl
