Cs2 Li1 Au1 Cl6
1.0
   1.9119160054553002   -6.0436434424351058    3.4771398570816054
   6.3399119343532844   -0.0000000000000000   -3.4826377823010657
   6.3399119343532844   -0.0000000000000000    4.0303387176989336
Au Cl Cs Li
1 6 2 1
direct
   0.9986615000000000    0.0017434999999998    0.9987930000000003 Au
   0.2227895000000000    0.7774934999999997    0.9995150000000002 Cl
   0.2227735000000000    0.2261459999999998    0.9984480000000000 Cl
   0.7746185000000000    0.7776529999999997    0.9988960000000002 Cl
   0.7751589999999999    0.2262739999999996    0.9971920000000003 Cl
   0.7027530000000000    0.7043309999999998    0.5923920000000001 Cl
   0.2959624999999999    0.2965304999999998    0.4068920000000001 Cl
   0.2485695000000000    0.7516179999999999    0.4991400000000001 Cs
   0.7486375000000001    0.2514434999999999    0.4988810000000001 Cs
   0.4965634999999999    0.5017074999999995    0.9996550000000002 Li
