Cs2 Cr1 Pb1 Cl6
1.0
  -6.4775497392358083    0.0000000000000000   -3.6392334837788125
  -2.0270402459722887    6.1574822463326759    3.6416608410971700
   6.4775497392358083    0.0000000000000000   -3.9588850062211876
Cl Cr Cs Pb
6 1 2 1
direct
   0.7548355000000000    0.7542065000000000    0.5130100000000002 Cl
   0.7702690000000002    0.7677800000000000    0.9991935000000003 Cl
   0.2254164999999999    0.2283565000000001    0.9977050000000001 Cl
   0.2413290000000001    0.2408030000000000    0.4851215000000000 Cl
   0.7663279999999997    0.2256750000000000    0.9980224999999999 Cl
   0.2326234999999999    0.7717434999999999    0.0039425000000002 Cl
   0.9974710000000000    0.9964189999999999    0.9959130000000004 Cr
   0.2483910000000000    0.7483139999999999    0.4998135000000001 Cs
   0.7486294999999999    0.2484065000000001    0.4997540000000001 Cs
   0.4982290000000000    0.4973950000000001    0.9979455000000002 Pb
