Cs2 Ni1 Au1 Cl6
1.0
   0.0000000000000000    0.0000000000000000   -6.9965677299999998
   3.7737805170448215    5.8941724279917080    0.0101744797292680
   2.7157766639233740   -5.8941724279917080    3.4870591262087651
Au Cl Cs Ni
1 6 2 1
direct
   0.0003690000000000    0.0019120000000000    0.0046540000000002 Au
   0.7548260000000001    0.7561990000000001    0.0025200000000001 Cl
   0.2958900000000001    0.2967710000000000    0.5951260000000000 Cl
   0.7055809999999999    0.7080850000000000    0.4159329999999999 Cl
   0.2454145000000000    0.2458005000000000    0.0045375000000000 Cl
   0.7556014999999999    0.2454415000000000    0.0037940000000000 Cl
   0.2434610000000001    0.7562500000000001    0.0030565000000001 Cl
   0.7498400000000001    0.2509380000000000    0.5033430000000000 Cs
   0.2493995000000000    0.7509935000000001    0.5034280000000001 Cs
   0.4997180000000000    0.5038110000000000    0.0057425000000000 Ni
