Cs4 Ti2 Hg2 Cl12
1.0
   6.1995894540281844   -0.0000000000000000   -3.3284119850499509
   2.5334119487653899   -6.8145993423101139    4.7262598461999996
  -3.6661775052627945   -6.8145993423101139   -7.9544366687500485
Cs Ti Hg Cl
4 2 2 12
direct
   0.0524090000000000    0.5819439999999999    0.7315900000000000 Cs
   0.5522609999999998    0.9178270000000001    0.2309659999999998 Cs
   0.4453999999999999    0.0800640000000001    0.7668729999999999 Cs
   0.9462199999999997    0.4178910000000003    0.2673029999999997 Cs
   0.4994800000000000    0.4983770000000000    0.9994110000000000 Ti
   0.9989369999999997    0.0001730000000002    0.4984659999999999 Ti
   0.9988230000000000    0.9976070000000000    0.9985560000000000 Hg
   0.4982369999999998    0.5000850000000001    0.4993389999999999 Hg
   0.6432309999999997    0.2607320000000002    0.0417569999999998 Cl
   0.2865749999999998    0.8697010000000002    0.5208789999999999 Cl
   0.2112510000000000    0.3689769999999999    0.9749570000000000 Cl
   0.8536739999999999    0.7623120000000001    0.4563349999999999 Cl
   0.7876259999999996    0.6279520000000003    0.0242369999999997 Cl
   0.1445389999999998    0.2374180000000001    0.5419629999999999 Cl
   0.3560830000000000    0.7366020000000000    0.9577030000000000 Cl
   0.7118609999999999    0.1312370000000001    0.4749919999999999 Cl
   0.9219899999999999    0.9684530000000001    0.7051089999999999 Cl
   0.4217159999999998    0.5313530000000002    0.2060239999999998 Cl
   0.5774029999999999    0.4655460000000000    0.7926899999999999 Cl
   0.0762539999999997    0.0323110000000003    0.2920239999999997 Cl
