Cs2 Sn1 Pt1 Cl6
1.0
  -4.2448173394423128   -6.0173191857260777   -0.0021081216561640
   0.0000000000000000    0.0000000000000000   -7.3684609050000001
   2.1498828016067417   -6.0173191857260777   -3.6828121695742255
Cl Cs Pt Sn
6 2 1 1
direct
   0.2390555000000000    0.7605609999999999    0.0053325000000001 Cl
   0.7581695000000001    0.7571355000000000    0.4857920000000000 Cl
   0.2417154999999999    0.2399270000000000    0.5248615000000001 Cl
   0.7607960000000000    0.2362569999999999    0.0054930000000000 Cl
   0.7621045000000000    0.7619530000000000    0.0024395000000000 Cl
   0.2381035000000000    0.2353085000000001    0.0076909999999999 Cl
   0.7506350000000001    0.2487370000000000    0.5045620000000001 Cs
   0.2497409999999999    0.7481795000000000    0.5055345000000001 Cs
   0.0000314999999999    0.9985095000000000    0.0051640000000001 Pt
   0.5001020000000000    0.4985020000000000    0.0050970000000000 Sn
