Cs2 Zn1 Pb1 Cl6
1.0
   2.1548956488428459   -6.1099460314700824    3.7332944232277572
   6.4788020819771956   -0.0000000000000000    3.7341004041313361
  -0.0000000000000000   -0.0000000000000000    7.4799581300000000
Cl Cs Pb Zn
6 2 1 1
direct
   0.2723134999999998    0.7333850000000001    0.2610120000000001 Cl
   0.2675894999999999    0.2714769999999999    0.7285440000000002 Cl
   0.7394670000000000    0.7292550000000000    0.2594500000000000 Cl
   0.7343999999999999    0.2686795000000001    0.7289425000000000 Cl
   0.7345865000000000    0.2648455000000000    0.2651395000000000 Cl
   0.2734445000000001    0.7370495000000001    0.7235855000000000 Cl
   0.2538990000000000    0.2505734999999999    0.2442914999999999 Cs
   0.7537685000000000    0.7507060000000000    0.7442030000000001 Cs
   0.0031074999999998    0.9997910000000001    0.9958380000000000 Pb
   0.5028089999999998    0.4994030000000002    0.4968449999999999 Zn
