Cs2 Tm1 Cu1 Cl6
1.0
   0.0000000000000000    5.2313590000000003    5.2313590000000003
   5.2313590000000003    0.0000000000000000    5.2313590000000003
   5.2313590000000003    5.2313590000000003    0.0000000000000000
Cs Tm Cu Cl
2 1 1 6
direct
   0.7500000000000000    0.7500000000000000    0.7500000000000000 Cs
   0.2500000000000000    0.2500000000000000    0.2500000000000000 Cs
   0.0000000000000000    0.0000000000000000    0.0000000000000000 Tm
   0.5000000000000000    0.5000000000000000    0.5000000000000000 Cu
   0.7497770000000000    0.2502230000000000    0.2502230000000000 Cl
   0.2502230000000000    0.2502230000000000    0.7497770000000000 Cl
   0.2502230000000000    0.7497770000000000    0.7497770000000000 Cl
   0.2502230000000000    0.7497770000000000    0.2502230000000000 Cl
   0.7497770000000000    0.2502230000000000    0.7497770000000000 Cl
   0.7497770000000000    0.7497770000000000    0.2502230000000000 Cl
