Cs4 Cu2 Bi2 Cl12
1.0
   1.0316589743416644   -6.0812660357826180    4.0769927995233406
   6.2976191249470315   -0.0000000000000000   -3.9318625409459083
   5.2659601506053670    6.0812660357826180    7.9164371495307506
Cs Cu Bi Cl
4 2 2 12
direct
   0.4789820000000001    0.0272200000000000    0.2539060000000000 Cs
   0.9910680000000001    0.5131969999999999    0.7526260000000001 Cs
   0.9983050000000000    0.5034459999999999    0.2486520000000001 Cs
   0.5230870000000001    0.9794439999999999    0.7497850000000001 Cs
   0.5343129999999999    0.4300529999999999    0.9446310000000001 Cu
   0.0645510000000000    0.9690380000000000    0.5551810000000001 Cu
   0.9996680000000000    0.0014560000000000    0.0024860000000000 Bi
   0.4986740000000001    0.5069869999999999    0.4983340000000001 Bi
   0.2420520000000000    0.7844900000000000    0.0053850000000000 Cl
   0.7254000000000000    0.2732910000000001    0.4997680000000000 Cl
   0.2640380000000000    0.3050020000000000    0.0338190000000000 Cl
   0.7798470000000000    0.7943870000000001    0.5242640000000000 Cl
   0.7188760000000001    0.7128559999999997    0.9762110000000003 Cl
   0.2008680000000000    0.2368489999999999    0.4658880000000001 Cl
   0.7389430000000000    0.2389549999999998    0.9927840000000002 Cl
   0.2536510000000000    0.7607780000000000    0.5083200000000001 Cl
   0.9634890000000000    0.9808150000000000    0.2330420000000001 Cl
   0.4689780000000000    0.4640069999999999    0.7472040000000001 Cl
   0.5200030000000000    0.5437700000000001    0.2676090000000000 Cl
   0.0400530000000000    0.0338189999999999    0.7532200000000001 Cl
