Cs4 Ga2 Au2 Cl12
1.0
  -6.6705817196084576    0.0000000000000000    3.0608082544375161
   2.5972402489120134   -6.1423564411499036    3.0749923286189329
   4.0733414706964446    6.1423564411499036    8.6241405869435503
Cs Ga Au Cl
4 2 2 12
direct
   0.0066510000000000    0.4837490000000000    0.2506180000000000 Cs
   0.4742920000000000    0.0289009999999999    0.7506320000000000 Cs
   0.4588409999999999    0.0341670000000000    0.2501030000000000 Cs
   0.0183579999999999    0.4884559999999998    0.7506110000000000 Cs
   0.5429430000000000    0.5398720000000000    0.0006260000000000 Ga
   0.9580840000000000    0.9551079999999998    0.5003980000000000 Ga
   0.9954850000000001    0.0016410000000000    0.0006960000000000 Au
   0.4965740000000000    0.5028890000000000    0.5000190000000000 Au
   0.1713130000000000    0.2799190000000000    0.0015170000000000 Cl
   0.7928470000000001    0.6465820000000000    0.5017740000000001 Cl
   0.6655400000000000    0.2705110000000001    0.0059440000000000 Cl
   0.2282040000000000    0.8332530000000000    0.5002940000000000 Cl
   0.3466429999999999    0.7529519999999997    0.9947900000000000 Cl
   0.7428570000000001    0.1493629999999999    0.5005220000000000 Cl
   0.8513580000000001    0.7058130000000000    0.0001850000000000 Cl
   0.2179360000000001    0.3275500000000000    0.4984580000000000 Cl
   0.9674660000000000    0.9754379999999999    0.2965130000000000 Cl
   0.5228689999999999    0.5179919999999999    0.7964230000000000 Cl
   0.5171980000000000    0.5348190000000000    0.2042060000000001 Cl
   0.9768580000000000    0.9825559999999999    0.7043779999999999 Cl
