Cs2 Ag1 Sb1 Cl6
1.0
   0.0000000000000000    5.4258009999999999    5.4258009999999999
   5.4258009999999999    0.0000000000000000    5.4258009999999999
   5.4258009999999999    5.4258009999999999    0.0000000000000000
Cs Ag Sb Cl
2 1 1 6
direct
   0.7500000000000000    0.7500000000000000    0.7500000000000000 Cs
   0.2500000000000000    0.2500000000000000    0.2500000000000000 Cs
   0.5000000000000000    0.5000000000000000    0.5000000000000000 Ag
   0.0000000000000000    0.0000000000000000    0.0000000000000000 Sb
   0.7536030000000000    0.2463970000000000    0.2463970000000000 Cl
   0.2463970000000000    0.2463970000000000    0.7536030000000000 Cl
   0.2463970000000000    0.7536030000000000    0.7536030000000000 Cl
   0.2463970000000000    0.7536030000000000    0.2463970000000000 Cl
   0.7536030000000000    0.2463970000000000    0.7536030000000000 Cl
   0.7536030000000000    0.7536030000000000    0.2463970000000000 Cl
