Cs4 K2 Au2 Cl12
1.0
  -1.1830032551025387    6.0773504981166990   -2.5008270146647451
  -6.3537638604889075    0.0000000000000000    2.0546294215373559
   5.1707606053863691    6.0773504981166990   14.0120335237978981
Cs K Au Cl
4 2 2 12
direct
   0.5392389999999999    0.9571180000000000    0.2497160000000000 Cs
   0.9466319999999998    0.5533330000000001    0.7501350000000001 Cs
   0.0548150000000000    0.4413670000000001    0.2504300000000000 Cs
   0.4608730000000000    0.0379260000000000    0.7500330000000001 Cs
   0.5001269999999998    0.4953660000000001    0.9998800000000001 K
   0.0007599999999999    0.9961450000000001    0.4997580000000000 K
   0.9998330000000000    0.9948270000000000    0.0000460000000000 Au
   0.5033850000000000    0.4951560000000000    0.5008049999999999 Au
   0.2152829999999999    0.5867780000000000    0.5666870000000001 Cl
   0.9057369999999998    0.2820030000000001    0.9336400000000001 Cl
   0.7520560000000001    0.8330560000000000    0.9267649999999999 Cl
   0.3447549999999998    0.2440340000000000    0.4282510000000000 Cl
   0.2476459999999999    0.1566490000000000    0.0733780000000000 Cl
   0.6616799999999998    0.7457910000000002    0.5736830000000002 Cl
   0.0938520000000000    0.7073530000000000    0.0661980000000000 Cl
   0.7914559999999999    0.4048150000000000    0.4345860000000000 Cl
   0.0453809999999999    0.9405630000000000    0.3106700000000000 Cl
   0.4449190000000001    0.5431859999999999    0.8109350000000000 Cl
   0.5551560000000000    0.4529490000000000    0.1891510000000000 Cl
   0.9540449999999999    0.0554450000000001    0.6887060000000000 Cl
