Cs4 Ti2 Au2 Cl12
1.0
   3.0489133459477880   -6.1897769275192154    4.5495231924715025
  -6.9079704806413060   -0.0000000000000000    4.7207320966332107
  -3.8590571346935181   -6.1897769275192154   -4.8577787408952862
Cs Ti Au Cl
4 2 2 12
direct
   0.5167930000000001    0.9706690000000000    0.7475540000000001 Cs
   0.9759340000000000    0.5199880000000001    0.2505689999999999 Cs
   0.0239360000000000    0.4779870000000001    0.7466789999999999 Cs
   0.4814970000000000    0.0250860000000001    0.2475119999999998 Cs
   0.5004270000000000    0.4981010000000000    0.9984870000000000 Ti
   0.9997080000000000    0.9993180000000002    0.4991539999999999 Ti
   0.9995510000000000    0.9990260000000000    0.9992410000000000 Au
   0.5003160000000000    0.4977770000000001    0.4985349999999998 Au
   0.3308590000000001    0.2830530000000000    0.9391730000000000 Cl
   0.7841539999999999    0.8282320000000002    0.4404950000000000 Cl
   0.2820880000000001    0.6855470000000000    0.9741630000000000 Cl
   0.8069740000000001    0.2124130000000001    0.5257649999999999 Cl
   0.7190940000000001    0.3109770000000002    0.0220169999999997 Cl
   0.1928620000000000    0.7863450000000001    0.4729040000000000 Cl
   0.6698320000000000    0.7137280000000003    0.0571159999999998 Cl
   0.2152520000000000    0.1709180000000001    0.5567099999999999 Cl
   0.9402790000000000    0.8998230000000000    0.7732450000000000 Cl
   0.3996830000000000    0.4399430000000001    0.2728949999999999 Cl
   0.6010630000000000    0.5561500000000001    0.7239740000000000 Cl
   0.0590740000000000    0.0985870000000001    0.2250439999999999 Cl
