Cs2 Y1 Cu1 Cl6
1.0
   0.0000000000000000    5.2714730000000003    5.2714730000000003
   5.2714730000000003    0.0000000000000000    5.2714730000000003
   5.2714730000000003    5.2714730000000003    0.0000000000000000
Cs Y Cu Cl
2 1 1 6
direct
   0.7500000000000000    0.7500000000000000    0.7500000000000000 Cs
   0.2500000000000000    0.2500000000000000    0.2500000000000000 Cs
   0.5000000000000000    0.5000000000000000    0.5000000000000000 Y
   0.0000000000000000    0.0000000000000000    0.0000000000000000 Cu
   0.7523370000000000    0.2476630000000000    0.2476630000000000 Cl
   0.2476630000000000    0.2476630000000000    0.7523370000000000 Cl
   0.2476630000000000    0.7523370000000000    0.7523370000000000 Cl
   0.2476630000000000    0.7523370000000000    0.2476630000000000 Cl
   0.7523370000000000    0.2476630000000000    0.7523370000000000 Cl
   0.7523370000000000    0.7523370000000000    0.2476630000000000 Cl
