Cs2 Na1 Ti1 Cl6
1.0
   4.1966431136380393    5.9651757294339784    0.0092037346058946
   6.3128659010442005   -0.0000000000000000    3.6523051740309729
   6.3128659010442005   -0.0000000000000000   -3.6668065109690273
Cl Cs Na Ti
6 2 1 1
direct
   0.7338125000000001    0.2644435000000001    0.7385685000000000 Cl
   0.7355225000000001    0.2637714999999999    0.2671400000000000 Cl
   0.2645045000000000    0.7334835000000000    0.7383730000000002 Cl
   0.2645075000000000    0.7348165000000001    0.2668615000000000 Cl
   0.2646255000000000    0.2639955000000000    0.7382739999999999 Cl
   0.7349805000000000    0.7346794999999999    0.2649275000000000 Cl
   0.7499210000000001    0.7494810000000000    0.7508890000000000 Cs
   0.2496710000000000    0.2492340000000000    0.2528885000000000 Cs
   0.9998359999999999    0.9993630000000001    0.0016894999999999 Na
   0.4997405000000000    0.4993055000000000    0.5020725000000000 Ti
